Na2 Mg2 S2 O8 F2
1.0
   4.3214689999999996    3.3863129999999999    0.0000000000000000
  -4.3214689999999996    3.3863129999999999    0.0000000000000000
   0.0000000000000000    2.9157940000000000    6.5684889999999996
Na Mg S O F
2 2 2 8 2
direct
   0.3307510000000000    0.6692490000000000    0.2500000000000000 Na
   0.6692490000000000    0.3307510000000000    0.7500000000000000 Na
   0.0000000000000000    0.0000000000000000    0.0000000000000000 Mg
   0.0000000000000000    0.0000000000000000    0.5000000000000000 Mg
   0.6784430000000000    0.3215570000000000    0.2500000000000000 S
   0.3215570000000000    0.6784430000000000    0.7500000000000000 S
   0.6830790000000000    0.1283730000000000    0.1359140000000000 O
   0.8716270000000000    0.3169210000000000    0.3640860000000000 O
   0.3169210000000000    0.8716270000000000    0.8640860000000000 O
   0.1283730000000000    0.6830790000000000    0.6359140000000000 O
   0.7453980000000000    0.5932130000000000    0.1043850000000000 O
   0.4067870000000000    0.2546020000000000    0.3956150000000000 O
   0.2546020000000000    0.4067870000000000    0.8956150000000000 O
   0.5932130000000000    0.7453980000000000    0.6043850000000000 O
   0.0778250000000000    0.9221750000000000    0.2500000000000000 F
   0.9221750000000000    0.0778250000000000    0.7500000000000000 F
