La2 Cu2 Se1 S1 O2
1.0
   4.0360139999999998    0.0000000000000000    0.0000000000000000
   0.0000000000000000    4.0360139999999998    0.0000000000000000
   0.0000000000000000    0.0000000000000000    8.7132719999999999
La Cu Se S O
2 2 1 1 2
direct
   0.5000000000000000    0.5000000000000000    0.8588470000000000 La
   0.0000000000000000    0.0000000000000000    0.1458970000000000 La
   0.0000000000000000    0.5000000000000000    0.4916260000000000 Cu
   0.5000000000000000    0.0000000000000000    0.4916260000000000 Cu
   0.0000000000000000    0.0000000000000000    0.6681510000000001 Se
   0.5000000000000000    0.5000000000000000    0.3386670000000000 S
   0.0000000000000000    0.5000000000000000    0.0025920000000000 O
   0.5000000000000000    0.0000000000000000    0.0025920000000000 O
