Ba1 La1 Cr1 Mo1 O6
1.0
   0.0000000000000000    4.0486060000000004    4.0486060000000004
   4.0486060000000004    0.0000000000000000    4.0486060000000004
   4.0486060000000004    4.0486060000000004    0.0000000000000000
Ba La Cr Mo O
1 1 1 1 6
direct
   0.7500000000000000    0.7500000000000000    0.7500000000000000 Ba
   0.2500000000000000    0.2500000000000000    0.2500000000000000 La
   0.0000000000000000    0.0000000000000000    0.0000000000000000 Cr
   0.5000000000000000    0.5000000000000000    0.5000000000000000 Mo
   0.7535340000000000    0.7535340000000000    0.2464660000000000 O
   0.2464660000000000    0.7535340000000000    0.2464660000000000 O
   0.7535340000000000    0.2464660000000000    0.2464660000000000 O
   0.2464660000000000    0.2464660000000000    0.7535340000000000 O
   0.7535340000000000    0.2464660000000000    0.7535340000000000 O
   0.2464660000000000    0.7535340000000000    0.7535340000000000 O
