K4 Cu2 H16 C8 O24
1.0
  14.8761849999999995    0.0000000000000000    0.0000000000000000
   0.0000000000000000    3.8923399999999999    0.0000000000000000
   0.0000000000000000    3.2438479999999998   10.9424489999999999
K Cu H C O
4 2 16 8 24
direct
   0.3687820000000000    0.2666610000000000    0.5132400000000000 K
   0.6312179999999999    0.7333390000000000    0.4867600000000000 K
   0.1312180000000000    0.2666610000000000    0.0132400000000000 K
   0.8687820000000001    0.7333390000000000    0.9867600000000000 K
   0.5000000000000000    0.5000000000000000    0.0000000000000000 Cu
   0.0000000000000000    0.5000000000000000    0.5000000000000000 Cu
   0.1253950000000000    0.0251220000000000    0.7623620000000000 H
   0.3111170000000000    0.8764050000000000    0.0217140000000000 H
   0.7282700000000000    0.0149260000000000    0.7019480000000000 H
   0.2282700000000000    0.9850740000000000    0.7980520000000000 H
   0.7717300000000000    0.0149260000000000    0.2019480000000000 H
   0.1888830000000000    0.8764050000000000    0.5217140000000000 H
   0.6888830000000000    0.1235950000000000    0.9782860000000000 H
   0.7142730000000000    0.3256650000000000    0.8457880000000000 H
   0.6253950000000000    0.9748780000000000    0.7376380000000000 H
   0.2717300000000000    0.9850740000000000    0.2980520000000000 H
   0.2142730000000000    0.6743350000000000    0.6542120000000000 H
   0.8746050000000000    0.9748780000000000    0.2376380000000000 H
   0.8111170000000000    0.1235950000000000    0.4782860000000000 H
   0.3746050000000000    0.0251220000000000    0.2623620000000000 H
   0.7857270000000000    0.3256650000000000    0.3457880000000000 H
   0.2857270000000000    0.6743350000000000    0.1542120000000000 H
   0.5981130000000000    0.7044010000000001    0.1740780000000000 C
   0.9747780000000000    0.4410620000000000    0.7447490000000000 C
   0.4747780000000000    0.5589380000000000    0.7552510000000000 C
   0.0981130000000000    0.2955990000000000    0.3259220000000000 C
   0.4018870000000000    0.2955990000000000    0.8259220000000000 C
   0.0252220000000000    0.5589380000000000    0.2552510000000000 C
   0.5252220000000000    0.4410620000000000    0.2447490000000000 C
   0.9018870000000000    0.7044010000000001    0.6740780000000000 C
   0.5288580000000001    0.6761400000000000    0.8243910000000000 O
   0.1546980000000000    0.1700430000000000    0.2689380000000000 O
   0.8453020000000000    0.8299569999999999    0.7310620000000000 O
   0.9064680000000001    0.7788030000000000    0.5561270000000000 O
   0.9785410000000000    0.3562780000000000    0.8581590000000000 O
   0.3295740000000000    0.8563160000000000    0.3102260000000000 O
   0.7630200000000000    0.2709050000000000    0.4296940000000000 O
   0.4785410000000000    0.6437220000000000    0.6418410000000000 O
   0.8295740000000000    0.1436840000000000    0.1897740000000000 O
   0.4711420000000000    0.3238600000000000    0.1756090000000000 O
   0.6704260000000000    0.1436840000000000    0.6897740000000000 O
   0.0214590000000000    0.6437220000000000    0.1418410000000000 O
   0.2369800000000000    0.7290950000000000    0.5703060000000000 O
   0.1704260000000000    0.8563160000000000    0.8102260000000000 O
   0.2630200000000000    0.7290950000000000    0.0703060000000000 O
   0.0935320000000000    0.2211970000000000    0.4438730000000000 O
   0.3453020000000000    0.1700430000000000    0.7689380000000000 O
   0.7369800000000000    0.2709050000000000    0.9296940000000000 O
   0.0288580000000000    0.3238600000000000    0.6756090000000000 O
   0.5935319999999999    0.7788030000000000    0.0561270000000000 O
   0.6546980000000000    0.8299569999999999    0.2310620000000000 O
   0.9711419999999999    0.6761400000000000    0.3243910000000000 O
   0.5214590000000000    0.3562780000000000    0.3581590000000000 O
   0.4064680000000000    0.2211970000000000    0.9438730000000000 O
