Ba3 Be2 B5 H1 O13
1.0
   5.3615709999999996    4.4310989999999997    0.0000000000000000
  -5.3615709999999996    4.4310989999999997    0.0000000000000000
   0.0000000000000000    2.3398129999999999    6.4334680000000004
Ba Be B H O
3 2 5 1 13
direct
   0.0199820000000000    0.5871000000000000    0.9796710000000000 Ba
   0.0119040000000000    0.0119040000000000    0.4143700000000000 Ba
   0.5871000000000000    0.0199820000000000    0.9796710000000000 Ba
   0.7230110000000000    0.4381860000000000    0.5585200000000000 Be
   0.4381860000000000    0.7230110000000000    0.5585200000000000 Be
   0.5607470000000000    0.5607470000000000    0.8912440000000000 B
   0.1214520000000000    0.5682810000000000    0.4309550000000000 B
   0.5682810000000000    0.1214520000000000    0.4309550000000000 B
   0.0432120000000000    0.0432120000000000    0.9572580000000001 B
   0.4386090000000000    0.4386090000000000    0.2912990000000000 B
   0.4092020000000000    0.4092020000000000    0.5934170000000000 H
   0.9626730000000000    0.1883370000000000    0.0366460000000000 O
   0.9597030000000000    0.9597030000000000    0.8168640000000000 O
   0.1883370000000000    0.9626730000000000    0.0366460000000000 O
   0.5107630000000000    0.5107630000000000    0.4746460000000000 O
   0.5700960000000000    0.5700960000000000    0.0963070000000000 O
   0.9307830000000000    0.5765130000000001    0.4075840000000000 O
   0.5765130000000001    0.9307830000000000    0.4075840000000000 O
   0.4500350000000000    0.6753650000000000    0.7968080000000000 O
   0.2241690000000000    0.4488150000000000    0.3231200000000000 O
   0.6755120000000000    0.2060260000000000    0.5489420000000000 O
   0.6753650000000000    0.4500350000000000    0.7968080000000000 O
   0.2060260000000000    0.6755120000000000    0.5489420000000000 O
   0.4488150000000000    0.2241690000000000    0.3231200000000000 O
