Cd8 I16
1.0
   2.1667250000000000   -3.7528779999999999    0.0000000000000000
   2.1667250000000000    3.7528779999999999    0.0000000000000000
   0.0000000000000000    0.0000000000000000   59.3599760000000032
Cd I
8 16
direct
   0.3333330000000000    0.6666670000000000    0.5312730000000000 Cd
   0.6666670000000000    0.3333330000000000    0.9062210000000002 Cd
   0.3333330000000000    0.6666670000000000    0.7812720000000000 Cd
   0.6666670000000000    0.3333330000000000    0.0312670000000000 Cd
   0.6666670000000000    0.3333330000000000    0.4062170000000000 Cd
   0.0000000000000000    0.0000000000000000    0.1561840000000000 Cd
   0.6666670000000000    0.3333330000000000    0.6562130000000002 Cd
   0.3333330000000000    0.6666670000000000    0.2813200000000000 Cd
   0.0000000000000000    0.0000000000000000    0.0022340000000000 I
   0.3333330000000000    0.6666670000000000    0.6852800000000000 I
   0.6666670000000000    0.3333330000000000    0.1271150000000000 I
   0.0000000000000000    0.0000000000000000    0.2522940000000000 I
   0.0000000000000000    0.0000000000000000    0.3771610000000000 I
   0.3333330000000000    0.6666670000000000    0.0603190000000000 I
   0.6666670000000000    0.3333330000000000    0.8103240000000000 I
   0.3333330000000000    0.6666670000000000    0.1852310000000000 I
   0.6666670000000000    0.3333330000000000    0.5603260000000001 I
   0.0000000000000000    0.0000000000000000    0.6271580000000000 I
   0.3333330000000000    0.6666670000000000    0.4352840000000001 I
   0.3333330000000000    0.6666670000000000    0.9352850000000000 I
   0.0000000000000000    0.0000000000000000    0.8771720000000000 I
   0.6666670000000000    0.3333330000000000    0.3103770000000000 I
   0.0000000000000000    0.0000000000000000    0.5022350000000000 I
   0.0000000000000000    0.0000000000000000    0.7522360000000000 I
