K3 Hg33
1.0
  10.3788710000000002    0.0000000000000000    0.0000000000000000
   0.0000000000000000   10.3788710000000002    0.0000000000000000
   0.0000000000000000    0.0000000000000000   10.3788710000000002
K Hg
3 33
direct
   0.0000000000000000    0.5000000000000000    0.0000000000000000 K
   0.0000000000000000    0.0000000000000000    0.5000000000000000 K
   0.5000000000000000    0.0000000000000000    0.0000000000000000 K
   0.1528280000000000    0.1528280000000000    0.8471720000000000 Hg
   0.8471720000000000    0.1528280000000000    0.1528280000000000 Hg
   0.8471720000000000    0.8471720000000000    0.1528280000000000 Hg
   0.1528280000000000    0.8471720000000000    0.8471720000000000 Hg
   0.8471720000000000    0.1528280000000000    0.8471720000000000 Hg
   0.8471720000000000    0.8471720000000000    0.8471720000000000 Hg
   0.3449880000000000    0.3449880000000000    0.0000000000000000 Hg
   0.3449880000000000    0.0000000000000000    0.3449880000000000 Hg
   0.3449880000000000    0.0000000000000000    0.6550120000000000 Hg
   0.0000000000000000    0.3449880000000000    0.6550120000000000 Hg
   0.0000000000000000    0.3449880000000000    0.3449880000000000 Hg
   0.6550120000000000    0.3449880000000000    0.0000000000000000 Hg
   0.3449880000000000    0.6550120000000000    0.0000000000000000 Hg
   0.6550120000000000    0.0000000000000000    0.3449880000000000 Hg
   0.0000000000000000    0.6550120000000000    0.6550120000000000 Hg
   0.6550120000000000    0.0000000000000000    0.6550120000000000 Hg
   0.0000000000000000    0.6550120000000000    0.3449880000000000 Hg
   0.6550120000000000    0.6550120000000000    0.0000000000000000 Hg
   0.2675370000000000    0.2675370000000000    0.5000000000000000 Hg
   0.2675370000000000    0.5000000000000000    0.2675370000000000 Hg
   0.2675370000000000    0.5000000000000000    0.7324630000000000 Hg
   0.5000000000000000    0.2675370000000000    0.7324630000000000 Hg
   0.5000000000000000    0.2675370000000000    0.2675370000000000 Hg
   0.7324630000000000    0.2675370000000000    0.5000000000000000 Hg
   0.2675370000000000    0.7324630000000000    0.5000000000000000 Hg
   0.7324630000000000    0.5000000000000000    0.2675370000000000 Hg
   0.5000000000000000    0.7324630000000000    0.7324630000000000 Hg
   0.7324630000000000    0.5000000000000000    0.7324630000000000 Hg
   0.5000000000000000    0.7324630000000000    0.2675370000000000 Hg
   0.7324630000000000    0.7324630000000000    0.5000000000000000 Hg
   0.1528280000000000    0.8471720000000000    0.1528280000000000 Hg
   0.1528280000000000    0.1528280000000000    0.1528280000000000 Hg
   0.5000000000000000    0.5000000000000000    0.5000000000000000 Hg
