Sr5 Mg1
1.0
   2.1185659999999999  -10.4045079999999999    0.0000000000000000
   2.1185659999999999   10.4045079999999999    0.0000000000000000
   0.0000000000000000    0.0000000000000000    6.6481940000000002
Sr Mg
5 1
direct
   0.9991389999999999    0.0008610000000000    0.0000000000000000 Sr
   0.3257050000000000    0.6742950000000000    0.0000000000000000 Sr
   0.6696800000000001    0.3303200000000001    0.0000000000000000 Sr
   0.4318969999999999    0.5681030000000000    0.5000000000000000 Sr
   0.1273230000000000    0.8726760000000000    0.5000000000000000 Sr
   0.7795890000000000    0.2204109999999999    0.5000000000000000 Mg
