Hf4 Pt12
1.0
   2.8552680000000001   -4.9454700000000003    0.0000000000000000
   2.8552680000000001    4.9454700000000003    0.0000000000000000
   0.0000000000000000    0.0000000000000000    9.3248870000000004
Hf Pt
4 12
direct
   0.0000000000000000    0.0000000000000000    0.5000000000000000 Hf
   0.6666670000000000    0.3333330000000000    0.7500000000000000 Hf
   0.3333330000000000    0.6666670000000000    0.2500000000000000 Hf
   0.0000000000000000    0.0000000000000000    0.0000000000000000 Hf
   0.1690909999999999    0.3381810000000000    0.7500000000000000 Pt
  -0.0000000000000000    0.5000000000000000    0.0000000000000000 Pt
   0.8309090000000000    0.6618190000000000    0.2500000000000000 Pt
   0.3381810000000000    0.1690909999999999    0.2500000000000000 Pt
   0.5000000000000000    0.5000000000000000    0.0000000000000000 Pt
   0.8309090000000000    0.1690909999999999    0.2500000000000000 Pt
   0.5000000000000000    0.5000000000000000    0.5000000000000000 Pt
   0.5000000000000000   -0.0000000000000000    0.5000000000000000 Pt
   0.1690909999999999    0.8309090000000000    0.7500000000000000 Pt
   0.6618190000000000    0.8309090000000000    0.7500000000000000 Pt
   0.5000000000000000   -0.0000000000000000    0.0000000000000000 Pt
  -0.0000000000000000    0.5000000000000000    0.5000000000000000 Pt
