Li22 S11
1.0
   3.9963566199999998    0.0001811700000000   -0.0000038100000000
   1.9983347300000001    3.4608557900000001   -0.0000038100000000
  21.9803926599999997   12.6903855900000000   36.7510744799999998
Li S
22 11
direct
   0.5262065500000004    0.5262065500000001    0.0383546000000000 Li
   0.5221534700000001    0.5221534700000000    0.1303426700000000 Li
   0.7519223700000001    0.7519223699999998    0.0676544300000000 Li
   0.7552064400000001    0.7552064400000003    0.1576798100000000 Li
   0.5331989900000002    0.5331989899999997    0.2182223900000000 Li
   0.2377223300000003    0.2377223300000000    0.2988017100000000 Li
   0.7421943000000003    0.7421942999999999    0.2521295300000000 Li
   0.2461720699999999    0.2461720700000002    0.3874109900000000 Li
   0.2481213700000000    0.2481213699999999    0.4777949800000000 Li
   0.7465272600000002    0.7465272599999997    0.3418503600000001 Li
   0.7481522000000010    0.7481522000000002    0.4323231900000001 Li
   0.2484639100000003    0.2484639099999995    0.5685972100000000 Li
   0.7496578100000003    0.7496578099999996    0.5228108000000001 Li
   0.2485379500000007    0.2485379499999997    0.6594938700000001 Li
   0.7499066500000008    0.7499066499999999    0.6136547800000000 Li
   0.2483822800000007    0.2483822800000001    0.7504319800000000 Li
   0.7498903800000010    0.7498903799999999    0.7045607400000000 Li
   0.2476148100000001    0.2476148100000001    0.8415582800000000 Li
   0.7497085600000003    0.7497085600000002    0.7955152200000000 Li
   0.2393869200000010    0.2393869200000002    0.9347175099999999 Li
   0.7477291700000006    0.7477291699999996    0.8869898300000001 Li
   0.7547319000000021    0.7547319000000007    0.9760211399999998 Li
   0.9868406200000001    0.9868406199999998    0.0035429400000001 S
   0.9867366600000004    0.9867366599999999    0.0945092900000001 S
   0.9861341500000004    0.9861341500000000    0.1856098200000000 S
   0.9971464500000005    0.9971464499999998    0.3644007300000001 S
   0.9957657800000003    0.9957657800000002    0.2738827600000001 S
   0.0005739200000006    0.0005739199999999    0.4543962100000001 S
   0.0016684700000000    0.0016684700000002    0.6359191100000000 S
   0.0015778400000008    0.0015778400000000    0.7268284300000000 S
   0.0014999300000004    0.0014999300000001    0.5450416500000000 S
   0.0010795800000010    0.0010795800000002    0.8178746099999998 S
   0.9993889000000012    0.9993889000000012    0.9092624400000000 S
