W4 O12
1.0
   5.4073609999999999    0.0000000000000000    0.0000000000000000
   0.0000000000000000    5.4073609999999999    0.0000000000000000
   0.0000000000000000    0.0000000000000000    7.8178450000000002
W O
4 12
direct
   0.0000000000000000    0.5000000000000000    0.2302810000000000 W
   0.0000000000000000    0.5000000000000000    0.7302810000000000 W
   0.5000000000000000    0.0000000000000000    0.2697190000000000 W
   0.5000000000000000    0.0000000000000000    0.7697189999999999 W
   0.2794560000000000    0.2794560000000000    0.7500000000000000 O
   0.7794559999999999    0.7794559999999999    0.2500000000000000 O
   0.2794560000000000    0.7205440000000000    0.2500000000000000 O
   0.2205440000000000    0.2205440000000000    0.2500000000000000 O
   0.7794559999999999    0.2205440000000000    0.7500000000000000 O
   0.7205440000000000    0.7205440000000000    0.7500000000000000 O
   0.2205440000000000    0.7794559999999999    0.7500000000000000 O
   0.7205440000000000    0.2794560000000000    0.2500000000000000 O
   0.0000000000000000    0.5000000000000000    0.9954420000000000 O
   0.5000000000000000    0.0000000000000000    0.5045580000000000 O
   0.0000000000000000    0.5000000000000000    0.4954420000000000 O
   0.5000000000000000    0.0000000000000000    0.0045580000000000 O
