Tb3 Ag1
1.0
   4.8002649999999996    0.0000000000000000    0.0000000000000000
   0.0000000000000000    4.8002649999999996    0.0000000000000000
   0.0000000000000000    0.0000000000000000    4.8002649999999996
Tb Ag
3 1
direct
   0.0000000000000000    0.5000000000000000    0.5000000000000000 Tb
   0.5000000000000000    0.0000000000000000    0.5000000000000000 Tb
   0.5000000000000000    0.5000000000000000    0.0000000000000000 Tb
   0.0000000000000000    0.0000000000000000    0.0000000000000000 Ag
