La2 Zn4
1.0
  -2.3511940000000000    3.7925700000000000    3.8135900000000000
   2.3511940000000000   -3.7925700000000000    3.8135900000000000
   2.3511940000000000    3.7925700000000000   -3.8135900000000000
La Zn
2 4
direct
   0.2071810000000000    0.7500000000000000    0.4571810000000001 La
   0.7928190000000001    0.2500000000000001    0.5428190000000002 La
   0.3971860000000000    0.5620829999999999    0.8351029999999999 Zn
   0.6028140000000000    0.4379170000000000    0.1648970000000000 Zn
   0.2269800000000000    0.0620830000000000    0.1648970000000000 Zn
   0.7730199999999999    0.9379169999999998    0.8351029999999999 Zn
