Mg14 Si8
1.0
   4.8862139999999998    0.0000000000000000    0.0000000000000000
   0.2697620000000000    6.0354000000000001    0.0000000000000000
   1.0509160000000000    2.7306140000000001   14.7323149999999998
Mg Si
14 8
direct
   0.5092380000000001    0.9502470000000001    0.8844119999999999 Mg
   0.1512500000000000    0.6362289999999999    0.6437340000000000 Mg
   0.7381169999999999    0.5142630000000000    0.5093839999999999 Mg
   0.6290080000000000    0.2687020000000000    0.6989660000000000 Mg
   0.4861820000000000    0.4692959999999999    0.8648480000000000 Mg
   0.7515240000000000    0.6533310000000000    0.3005490000000000 Mg
   0.7936249999999999    0.1428010000000000    0.3328580000000000 Mg
   0.7109030000000001    0.9971560000000002    0.5423289999999999 Mg
   0.9757340000000002    0.6337890000000002    0.9738349999999999 Mg
   0.9683250000000001    0.1299450000000001    0.9796000000000000 Mg
   0.4337800000000000    0.2974100000000000    0.0743210000000000 Mg
   0.4718110000000001    0.7874280000000000    0.1007510000000000 Mg
   0.2617560000000000    0.3097320000000000    0.4308620000000000 Mg
   0.2491340000000000    0.8081820000000000    0.4313270000000000 Mg
   0.9038690000000001    0.0249980000000000    0.1617100000000000 Si
   0.0919800000000000    0.2299210000000000    0.7924230000000000 Si
   0.6134310000000001    0.7939270000000003    0.7184750000000000 Si
   0.3175980000000000    0.4146960000000000    0.2460990000000000 Si
   0.8973600000000000    0.4385810000000001    0.1507530000000000 Si
   0.0551200000000000    0.8276990000000000    0.7915780000000000 Si
   0.1607909999999999    0.1615550000000001    0.6208129999999999 Si
   0.3294240000000000    0.0065200000000000    0.2539960000000000 Si
