Al4 S6
1.0
   5.7595570000000000   -3.0414010000000000    0.0000000000000000
   5.7595570000000000    3.0414010000000000    0.0000000000000000
   4.1535099999999998    0.0000000000000000    5.0170690000000002
Al S
4 6
direct
   0.8493160000000000    0.8493159999999998    0.8493160000000001 Al
   0.3493160000000001    0.3493160000000000    0.3493160000000000 Al
   0.1506840000000000    0.1506840000000000    0.1506840000000000 Al
   0.6506840000000000    0.6506839999999999    0.6506840000000002 Al
   0.4447590000000001    0.0552409999999999    0.7500000000000001 S
   0.7499999999999999    0.4447590000000000    0.0552410000000000 S
   0.0552410000000000    0.7499999999999999    0.4447590000000001 S
   0.2500000000000001    0.5552409999999998    0.9447590000000001 S
   0.9447590000000000    0.2499999999999999    0.5552410000000000 S
   0.5552410000000000    0.9447589999999999    0.2500000000000000 S
