Mg26 Au82
1.0
   7.6170429999999998  -13.1931060000000002    0.0000000000000000
   7.6170429999999998   13.1931060000000002    0.0000000000000000
   0.0000000000000000    0.0000000000000000    9.6216100000000004
Mg Au
26 82
direct
   0.0000000000000000    0.0000000000000000    0.0000000000000000 Mg
   0.0000000000000000    0.0000000000000000    0.5000000000000000 Mg
   0.4453540000000000   -0.0000000000000000    0.2500000000000000 Mg
   0.4453540000000000    0.4453539999999999    0.7500000000000000 Mg
   0.0000000000000000    0.5546459999999999    0.7500000000000000 Mg
   0.0000000000000000    0.4453540000000000    0.2500000000000000 Mg
   0.5546460000000000    0.5546459999999999    0.2500000000000000 Mg
   0.5546460000000000   -0.0000000000000000    0.7500000000000000 Mg
   0.7758630000000000   -0.0000000000000001    0.2500000000000000 Mg
   0.7758630000000000    0.7758629999999997    0.7500000000000000 Mg
   0.0000000000000000    0.2241370000000000    0.7500000000000000 Mg
   0.0000000000000000    0.7758629999999999    0.2500000000000000 Mg
   0.2241370000000000    0.2241370000000000    0.2500000000000000 Mg
   0.2241370000000000   -0.0000000000000000    0.7500000000000000 Mg
   0.2231500000000000    0.4462999999999999    0.0000000000000000 Mg
   0.7768500000000002    0.2231499999999999    0.5000000000000000 Mg
   0.4462999999999999    0.2231499999999999    0.5000000000000000 Mg
   0.5537000000000000    0.7768500000000000    0.0000000000000000 Mg
   0.2231500000000001    0.7768499999999999    0.0000000000000000 Mg
   0.7768500000000002    0.5536999999999999    0.5000000000000000 Mg
   0.7768500000000002    0.5536999999999999    0.0000000000000000 Mg
   0.2231500000000001    0.7768499999999999    0.5000000000000000 Mg
   0.5537000000000000    0.7768500000000000    0.5000000000000000 Mg
   0.4462999999999999    0.2231499999999999    0.0000000000000000 Mg
   0.7768500000000002    0.2231499999999999    0.0000000000000000 Mg
   0.2231500000000000    0.4462999999999999    0.5000000000000000 Mg
   0.3333330000000000    0.6666669999999998    0.0000000000000000 Au
   0.6666669999999999    0.3333329999999999    0.5000000000000000 Au
   0.6666669999999999    0.3333329999999999    0.0000000000000000 Au
   0.3333330000000000    0.6666669999999998    0.5000000000000000 Au
   0.1096300000000000    0.0000000000000000    0.2500000000000000 Au
   0.1096300000000000    0.1096300000000000    0.7500000000000000 Au
   0.0000000000000000    0.8903699999999999    0.7500000000000000 Au
   0.0000000000000000    0.1096300000000000    0.2500000000000000 Au
   0.8903700000000000    0.8903699999999998    0.2500000000000000 Au
   0.8903700000000000   -0.0000000000000001    0.7500000000000000 Au
   0.1107950000000000    0.2215900000000000    0.0000000000000000 Au
   0.8892050000000000    0.1107949999999999    0.5000000000000000 Au
   0.2215900000000000    0.1107950000000000    0.5000000000000000 Au
   0.7784100000000002    0.8892049999999999    0.0000000000000000 Au
   0.1107950000000000    0.8892049999999999    0.0000000000000000 Au
   0.8892050000000001    0.7784099999999999    0.5000000000000000 Au
   0.8892050000000001    0.7784099999999999    0.0000000000000000 Au
   0.1107950000000000    0.8892049999999999    0.5000000000000000 Au
   0.7784100000000002    0.8892049999999999    0.5000000000000000 Au
   0.2215900000000000    0.1107950000000000    0.0000000000000000 Au
   0.8892050000000000    0.1107949999999999    0.0000000000000000 Au
   0.1107950000000000    0.2215900000000000    0.5000000000000000 Au
   0.4449890000000000    0.8899779999999999    0.0000000000000000 Au
   0.5550110000000000    0.4449889999999999    0.5000000000000000 Au
   0.8899780000000000    0.4449889999999999    0.5000000000000000 Au
   0.1100220000000000    0.5550109999999999    0.0000000000000000 Au
   0.4449890000000000    0.5550109999999999    0.0000000000000000 Au
   0.5550110000000000    0.1100219999999999    0.5000000000000000 Au
   0.5550110000000000    0.1100219999999999    0.0000000000000000 Au
   0.4449890000000000    0.5550109999999999    0.5000000000000000 Au
   0.1100220000000000    0.5550109999999999    0.5000000000000000 Au
   0.8899780000000000    0.4449889999999999    0.0000000000000000 Au
   0.5550110000000000    0.4449889999999999    0.0000000000000000 Au
   0.4449890000000000    0.8899779999999999    0.5000000000000000 Au
   0.2209330000000000    0.5514790000000001    0.2500000000000000 Au
   0.6694540000000000    0.2209329999999999    0.7500000000000000 Au
   0.5514790000000002    0.3305460000000000    0.7500000000000000 Au
   0.4485209999999999    0.6694539999999999    0.2500000000000000 Au
   0.3305460000000001    0.7790669999999998    0.2500000000000000 Au
   0.6694540000000000    0.4485209999999998    0.2500000000000000 Au
   0.7790670000000000    0.3305460000000000    0.2500000000000000 Au
   0.7790669999999998    0.4485209999999999    0.7500000000000000 Au
   0.5514790000000001    0.2209330000000000    0.2500000000000000 Au
   0.4485210000000000    0.7790669999999997    0.7500000000000000 Au
   0.3305460000000001    0.5514790000000001    0.7500000000000000 Au
   0.2209330000000000    0.6694539999999999    0.7500000000000000 Au
   0.1104860000000000    0.6663509999999999    0.2500000000000000 Au
   0.4441350000000000    0.1104860000000000    0.7500000000000000 Au
   0.6663509999999999    0.5558649999999999    0.7500000000000000 Au
   0.3336490000000000    0.4441350000000000    0.2500000000000000 Au
   0.5558650000000002    0.8895139999999998    0.2500000000000000 Au
   0.4441350000000001    0.3336489999999999    0.2500000000000000 Au
   0.8895140000000000    0.5558649999999999    0.2500000000000000 Au
   0.8895140000000000    0.3336489999999999    0.7500000000000000 Au
   0.6663510000000000    0.1104859999999999    0.2500000000000000 Au
   0.3336490000000000    0.8895139999999999    0.7500000000000000 Au
   0.5558650000000001    0.6663509999999998    0.7500000000000000 Au
   0.1104860000000000    0.4441349999999999    0.7500000000000000 Au
   0.1117680000000000    0.3327930000000000    0.2500000000000000 Au
   0.7789740000000001    0.1117680000000000    0.7500000000000000 Au
   0.3327930000000000    0.2210260000000000    0.7500000000000000 Au
   0.6672070000000001    0.7789739999999999    0.2500000000000000 Au
   0.2210260000000001    0.8882319999999999    0.2500000000000000 Au
   0.7789740000000001    0.6672070000000000    0.2500000000000000 Au
   0.8882320000000000    0.2210259999999999    0.2500000000000000 Au
   0.8882320000000000    0.6672069999999998    0.7500000000000000 Au
   0.3327930000000000    0.1117680000000000    0.2500000000000000 Au
   0.6672070000000000    0.8882319999999998    0.7500000000000000 Au
   0.2210260000000001    0.3327929999999999    0.7500000000000000 Au
   0.1117680000000000    0.7789739999999999    0.7500000000000000 Au
   0.3319500000000000   -0.0000000000000000    0.0008950000000000 Au
   0.3319500000000000    0.3319500000000000    0.5008950000000000 Au
   0.0000000000000000    0.6680499999999999    0.5008950000000000 Au
   0.0000000000000000    0.3319500000000000    0.0008950000000000 Au
   0.6680500000000000    0.6680499999999998    0.0008950000000000 Au
   0.3319500000000000   -0.0000000000000000    0.4991050000000000 Au
   0.6680500000000000    0.6680499999999998    0.4991050000000000 Au
   0.6680500000000000   -0.0000000000000001    0.5008950000000000 Au
   0.0000000000000000    0.3319500000000000    0.4991050000000000 Au
   0.0000000000000000    0.6680499999999999    0.9991050000000000 Au
   0.6680500000000000   -0.0000000000000001    0.9991050000000000 Au
   0.3319500000000000    0.3319500000000000    0.9991050000000000 Au
