W8 O24
1.0
   7.6802219999999997    0.0000000000000000    0.0000000000000000
   0.0000000000000000    7.7188939999999997    0.0000000000000000
   0.0000000000000000    0.0247720000000000    7.7509189999999997
W O
8 24
direct
   0.2469360000000000    0.4885670000000000    0.7653050000000000 W
   0.7530640000000000    0.5114330000000000    0.2346950000000000 W
   0.2448570000000000    0.9890510000000001    0.7347769999999999 W
   0.7551430000000000    0.0109490000000000    0.2652229999999999 W
   0.2530640000000000    0.4885670000000000    0.2653050000000000 W
   0.7469360000000000    0.5114330000000000    0.7346949999999999 W
   0.2551430000000000    0.9890510000000000    0.2347770000000000 W
   0.7448570000000001    0.0109490000000000    0.7652230000000000 W
   0.2325720000000000    0.0011460000000000    0.9968499999999999 O
   0.7674280000000000    0.9988540000000000    0.0031500000000000 O
   0.2336830000000000    0.5010660000000001    0.5034360000000000 O
   0.7663170000000000    0.4989340000000000    0.4965640000000000 O
   0.2663170000000000    0.5010660000000000    0.0034360000000000 O
   0.7336830000000000    0.4989340000000000    0.9965639999999999 O
   0.2674280000000000    0.0011460000000000    0.4968500000000000 O
   0.7325720000000000    0.9988540000000001    0.5031500000000000 O
   0.9988760000000000    0.0126430000000000    0.7324349999999999 O
   0.0011240000000000    0.9873570000000002    0.2675650000000000 O
   0.4990320000000000    0.5130590000000000    0.7337129999999999 O
   0.5009680000000000    0.4869410000000000    0.2662870000000000 O
   0.9990320000000000    0.4869410000000001    0.7662870000000001 O
   0.0009680000000000    0.5130590000000000    0.2337130000000000 O
   0.4988760000000000    0.9873570000000000    0.7675650000000001 O
   0.5011240000000001    0.0126430000000000    0.2324350000000000 O
   0.7370080000000000    0.2535070000000000    0.7546349999999999 O
   0.2629920000000001    0.7464930000000001    0.2453650000000000 O
   0.7628260000000000    0.7535590000000000    0.7455980000000000 O
   0.2371740000000000    0.2464410000000000    0.2544020000000000 O
   0.7629920000000000    0.2535070000000000    0.2546350000000000 O
   0.2370080000000000    0.7464929999999999    0.7453650000000001 O
   0.7371740000000000    0.7535590000000000    0.2455980000000000 O
   0.2628260000000000    0.2464410000000000    0.7544020000000000 O
