Dy2 Si3
1.0
  -1.9454700000000000    1.9949550000000000    6.8728259999999999
   1.9454700000000000   -1.9949550000000000    6.8728259999999999
   1.9454700000000000    1.9949550000000000   -6.8728259999999999
Dy Si
2 3
direct
   0.1264720000000000    0.1264720000000000    0.0000000000000000 Dy
   0.3729080000000000    0.8729080000000000    0.4999999999999999 Dy
   0.9679900000000000    0.4679900000000001    0.5000000000000000 Si
   0.6983019999999999    0.6983019999999999    0.0000000000000000 Si
   0.7983280000000001    0.2983280000000000    0.5000000000000001 Si
