Ti68 O34
1.0
  11.2636860700000003   -0.1085842100000000   -0.5869452200000000
  -0.1134254700000000   11.3817172200000005    0.0666567500000000
  -0.6084127900000000    0.0499454300000000   10.9862697399999991
Ti O
68 34
direct
   0.1700525200000000    0.7510325799999998    0.6002010200000000 Ti
   0.6313388300000000    0.3525065900000001    0.9227244699999999 Ti
   0.9453130500000001    0.6939711900000000    0.4842674699999999 Ti
   0.8202392300000000    0.3079080000000000    0.4337984300000000 Ti
   0.0221473900000000    0.2283754900000000    0.6014545400000000 Ti
   0.6354453100000003    0.1374886400000000    0.8004433999999999 Ti
   0.0688759100000000    0.8826216799999999    0.3524985099999999 Ti
   0.0850322600000000    0.4295556900000000    0.9176757599999997 Ti
   0.1464356200000000    0.0194539600000000    0.5686359199999999 Ti
   0.3874865600000001    0.0128919400000000    0.6976131799999999 Ti
   0.7658632100000002    0.5359664999999999    0.3829895999999999 Ti
   0.8716973100000002    0.9123914600000000    0.4898284099999999 Ti
   0.5920820800000001    0.2683454800000000    0.2053865900000000 Ti
   0.8332629100000002    0.1031259400000000    0.6135856599999999 Ti
   0.3571551100000001    0.5896752500000000    0.6738387399999999 Ti
   0.0318884600000000    0.6553993700000000    0.7843399399999998 Ti
   0.8180214300000003    0.3918569500000000    0.1679754200000000 Ti
   0.3870470000000000    0.8565987199999999    0.4194329999999999 Ti
   0.5651915900000001    0.5787338600000000    0.8257889399999999 Ti
   0.9697918900000002    0.1270164100000000    0.3607286599999999 Ti
   0.8656072500000001    0.2561963200000000    0.9603158899999998 Ti
   0.2400058000000000    0.6515008700000000    0.9372188000000000 Ti
   0.8497909600000001    0.9386361000000001    0.2466491300000000 Ti
   0.8380586300000002    0.5236054900000000    0.9308834499999997 Ti
   0.0131647900000000    0.4378677000000000    0.4054802700000000 Ti
   0.4236351300000001    0.0344348300000000    0.1510654400000000 Ti
   0.6266751200000001    0.8214937599999999    0.1973293100000000 Ti
   0.0358311900000000    0.8975193599999999    0.7380973399999999 Ti
   0.9896354500000000    0.0701741300000000    0.0867223800000000 Ti
   0.5269994099999999    0.9277223700000001    0.9251134599999999 Ti
   0.7938122100000001    0.3223166000000000    0.7211531799999999 Ti
   0.1970404400000000    0.2218763700000000    0.4489670800000000 Ti
   0.4320712200000000    0.2851870399999999    0.6428388999999999 Ti
   0.2269176600000000    0.9592664899999999    0.9609354999999999 Ti
   0.1379661000000000    0.4789410500000000    0.6485242299999999 Ti
   0.6729022200000002    0.0784296600000000    0.3679922600000000 Ti
   0.6659677500000001    0.5753034900000000    0.1382357100000000 Ti
   0.4036449600000000    0.1411672500000000    0.9087146699999998 Ti
   0.5419645800000001    0.7774066999999998    0.6980021099999999 Ti
   0.4509481300000000    0.4472902100000000    0.0838153900000000 Ti
   0.2245113600000000    0.4704962999999999    0.1556701400000000 Ti
   0.4287359800000001    0.1003306700000000    0.4436742700000000 Ti
   0.5220571700000002    0.3998929700000000    0.3876484399999999 Ti
   0.8026860800000001    0.7600133599999999    0.6896660999999998 Ti
   0.3385823100000001    0.7985088299999999    0.7978802400000000 Ti
   0.1720466200000000    0.6630680100000000    0.3622047800000000 Ti
   0.4870194600000001    0.6928814800000000    0.0106603900000000 Ti
   0.7207754200000004    0.0494018700000000    0.0507083000000000 Ti
   0.8098030500000000    0.9743752799999998    0.8325372300000000 Ti
   0.3590772300000001    0.3932346700000001    0.8451991399999998 Ti
   0.0012336800000000    0.8598306700000000    0.9856474599999999 Ti
   0.5929467400000001    0.4944916900000000    0.6065078100000000 Ti
   0.2699343400000001    0.4547654999999999    0.4385205500000000 Ti
   0.3482723200000001    0.2628682200000000    0.2633880299999999 Ti
   0.0395294400000000    0.1062550100000000    0.8525290499999999 Ti
   0.6710942700000002    0.7376334900000000    0.4542735399999999 Ti
   0.0604873400000000    0.2834683800000000    0.1745127600000000 Ti
   0.2296953300000001    0.2081675400000000    0.7303549400000000 Ti
   0.1999421200000001    0.0633966000000000    0.2319095600000000 Ti
   0.6268988200000001    0.2253969000000000    0.5543770699999999 Ti
   0.4762356600000001    0.6191901700000001    0.2756913200000000 Ti
   0.6023151600000001    0.9662248100000000    0.5734819899999999 Ti
   0.0527072200000000    0.6352888899999999    0.0543784200000000 Ti
   0.7383427400000001    0.7861042000000000    0.9779949400000000 Ti
   0.8771832300000001    0.5218129899999999    0.6243831500000000 Ti
   0.2376466400000000    0.2282699099999999    0.0345728800000000 Ti
   0.8732313400000001    0.6996717800000000    0.2098497499999999 Ti
   0.3281224300000001    0.7969376700000002    0.1470333700000000 Ti
   0.1672938900000000    0.7852554800000000    0.0452486100000000 O
   0.2734948400000001    0.4087027100000000    0.9951491299999999 O
   0.6914508800000001    0.4571972300000000    0.7960864500000000 O
   0.9346672700000004    0.5877313399999999    0.3388112099999999 O
   0.4652873400000001    0.4558955200000001    0.7180304799999999 O
   0.6782823800000001    0.9919633299999999    0.2113015300000000 O
   0.1299186100000000    0.5960010900000000    0.2089424400000000 O
   0.3363790500000001    0.7119176800000000    0.3145562499999999 O
   0.4936765800000000    0.1389726500000000    0.2799230100000000 O
   0.2238737800000000    0.9059441799999999    0.6943868100000000 O
   0.3530049300000000    0.6098467899999999    0.0979028700000000 O
   0.9760152600000002    0.3918940100000000    0.5810543100000000 O
   0.1345575900000000    0.0521868200000000    0.3912955100000000 O
   0.2413167600000000    0.6031252200000000    0.5347857599999999 O
   0.4752382300000000    0.8746948199999998    0.0909770900000000 O
   0.3049011100000000    0.1357379800000000    0.5763386199999999 O
   0.6987868900000002    0.2015878400000000    0.9837442600000000 O
   0.9179064800000002    0.3888136400000000    0.8495749300000000 O
   0.8606246700000001    0.6171032300000000    0.7727745299999998 O
   0.5030474300000000    0.2603603999999999    0.8289067000000000 O
   0.6467419700000001    0.2649144399999999    0.3838835600000000 O
   0.8958603900000002    0.7114388200000000    0.0261402600000000 O
   0.1563739100000000    0.3515389400000001    0.7775670499999999 O
   0.5220219400000001    0.1143123700000000    0.6366518799999998 O
   0.9340595900000003    0.3090254300000000    0.2897278500000000 O
   0.8579761400000001    0.9266803299999999    0.6699965299999999 O
   0.6354671200000003    0.3984090199999999    0.0960819500000000 O
   0.5877082700000001    0.5700224399999999    0.4298992999999999 O
   0.0475828000000000    0.2260922999999999    0.9900927999999998 O
   0.2196064100000001    0.8369255200000000    0.4528110500000000 O
   0.6799221400000001    0.6188061699999999    0.9657682199999998 O
   0.3655001700000001    0.4513745100000001    0.2919069599999999 O
   0.7365647800000003    0.4085457600000000    0.5554548399999999 O
   0.5288551700000000    0.8036446400000001    0.5154444900000000 O
