Mg2 Mn2
1.0
   3.0019030000000000    0.0000000000000000    0.0000000000000000
   0.0000000000000000    4.6908510000000003    0.0000000000000000
   0.0000000000000000    0.0000000000000000    4.8792030000000004
Mg Mn
2 2
direct
   0.0000000000000000    0.2500000000000000    0.1985130000000000 Mg
   0.0000000000000000    0.7500000000000000    0.8014869999999999 Mg
   0.5000000000000000    0.7500000000000000    0.3150550000000000 Mn
   0.5000000000000000    0.2500000000000000    0.6849450000000000 Mn
