Cr2 I4
1.0
   2.0505960000000001   -3.5517360000000000    0.0000000000000000
   2.0505960000000001    3.5517360000000000    0.0000000000000000
   0.0000000000000000    0.0000000000000000   14.3804990000000004
Cr I
2 4
direct
   0.6666670000000000    0.3333329999999999    0.6205800000000000 Cr
   0.3333330000000000    0.6666670000000000    0.1205800000000000 Cr
   0.0000000000000000    0.0000000000000000    0.5069010000000000 I
   0.0000000000000000    0.0000000000000000    0.0069010000000000 I
   0.3333330000000000    0.6666670000000000    0.7335189999999999 I
   0.6666670000000000    0.3333329999999999    0.2335190000000000 I
