Sm2 Ge3
1.0
   2.2171979999999998   -3.8402989999999999    0.0000000000000000
   2.2171979999999998    3.8402989999999999    0.0000000000000000
   0.0000000000000000    0.0000000000000000    7.2831419999999998
Sm Ge
2 3
direct
   0.6666670000000000    0.3333329999999999    0.7305930000000000 Sm
   0.6666670000000000    0.3333329999999999    0.2694070000000000 Sm
   0.0000000000000000    0.0000000000000000    0.0000000000000000 Ge
   0.3333330000000000    0.6666669999999999    0.5000000000000000 Ge
   0.3333330000000000    0.6666669999999999    0.0000000000000000 Ge
