Ce8 Se16
1.0
   7.8410099999999998    0.0000000000000000    0.0000000000000000
   0.0000000000000000   13.7996289999999995    0.0000000000000000
   0.0000000000000000    8.4188179999999999   13.2953469999999996
Ce Se
8 16
direct
   0.7687150000000000    0.3727290000000000    0.3443390000000000 Ce
   0.2687150000000000    0.6272710000000000    0.1556610000000000 Ce
   0.2312850000000000    0.6272710000000000    0.6556610000000000 Ce
   0.7312850000000000    0.3727290000000000    0.8443390000000000 Ce
   0.5290350000000001    0.1279630000000000    0.2186980000000000 Ce
   0.0290350000000000    0.8720370000000000    0.2813020000000000 Ce
   0.4709650000000000    0.8720369999999998    0.7813020000000002 Ce
   0.9709650000000000    0.1279630000000000    0.7186979999999999 Ce
   0.6255810000000001    0.1869310000000000    0.3513960000000000 Se
   0.1255810000000000    0.8130690000000002    0.1486040000000000 Se
   0.3744190000000000    0.8130690000000002    0.6486040000000000 Se
   0.8744189999999999    0.1869310000000000    0.8513960000000000 Se
   0.9042950000000001    0.3060740000000001    0.5272080000000000 Se
   0.4042950000000000    0.6939260000000000    0.9727920000000000 Se
   0.0957050000000000    0.6939260000000002    0.4727920000000000 Se
   0.5957050000000000    0.3060740000000001    0.0272080000000000 Se
   0.5240750000000001    0.5366000000000001    0.2933450000000000 Se
   0.0240750000000000    0.4634000000000000    0.2066550000000000 Se
   0.4759250000000000    0.4634000000000000    0.7066550000000001 Se
   0.9759250000000000    0.5365999999999999    0.7933450000000000 Se
   0.6916370000000001    0.9333640000000000    0.2598000000000000 Se
   0.1916370000000000    0.0666360000000000    0.2402000000000000 Se
   0.3083630000000000    0.0666360000000001    0.7402000000000000 Se
   0.8083630000000001    0.9333640000000001    0.7598000000000000 Se
