Ge3 Mo1
1.0
  -1.9942869999999999    1.9942869999999999    4.2453159999999999
   1.9942869999999999   -1.9942869999999999    4.2453159999999999
   1.9942869999999999    1.9942869999999999   -4.2453159999999999
Ge Mo
3 1
direct
   0.7500000000000000    0.2500000000000000    0.5000000000000000 Ge
   0.2500000000000000    0.7500000000000000    0.5000000000000000 Ge
   0.5000000000000000    0.5000000000000000    0.0000000000000000 Ge
   0.0000000000000000    0.0000000000000000    0.0000000000000000 Mo
