Cd19 I38
1.0
   2.1710189999999998   -3.7603140000000002    0.0000000000000000
   2.1710189999999998    3.7603140000000002    0.0000000000000000
   0.0000000000000000    0.0000000000000000  139.5823540000000094
Cd I
19 38
direct
   0.0000000000000000    0.0000000000000000    0.5394870000000000 Cd
   0.6666670000000000    0.3333330000000000    0.9605240000000000 Cd
   0.0000000000000000    0.0000000000000000    0.3289560000000000 Cd
   0.6666670000000000    0.3333330000000000    0.5920950000000000 Cd
   0.0000000000000000    0.0000000000000000    0.4342020000000000 Cd
   0.6666670000000000    0.3333330000000000    0.0657690000000000 Cd
   0.6666670000000000    0.3333330000000000    0.4868360000000000 Cd
   0.0000000000000000    0.0000000000000000    0.6447390000000000 Cd
   0.0000000000000000    0.0000000000000000    0.0131680000000000 Cd
   0.6666670000000000    0.3333330000000000    0.6973630000000001 Cd
   0.0000000000000000    0.0000000000000000    0.1184210000000000 Cd
   0.6666670000000000    0.3333330000000000    0.2763280000000000 Cd
   0.0000000000000000    0.0000000000000000    0.7499980000000001 Cd
   0.6666670000000000    0.3333330000000000    0.1710560000000000 Cd
   0.6666670000000000    0.3333330000000000    0.9079040000000000 Cd
   0.6666670000000000    0.3333330000000000    0.3815590000000000 Cd
   0.0000000000000000    0.0000000000000000    0.2237050000000000 Cd
   0.6666670000000000    0.3333330000000000    0.8026180000000001 Cd
   0.0000000000000000    0.0000000000000000    0.8552689999999999 Cd
   0.3333329999999999    0.6666670000000000    0.8428760000000000 I
   0.3333329999999999    0.6666670000000000    0.7376000000000000 I
   0.3333329999999999    0.6666670000000000    0.4744440000000000 I
   0.0000000000000000    0.0000000000000000    0.2887220000000000 I
   0.6666670000000000    0.3333330000000000    0.0255480000000000 I
   0.6666670000000000    0.3333330000000000    0.4465910000000000 I
   0.3333329999999999    0.6666670000000000    0.2639190000000000 I
   0.6666670000000000    0.3333330000000000    0.6571290000000000 I
   0.3333329999999999    0.6666670000000000    0.0533720000000000 I
   0.6666670000000000    0.3333330000000000    0.8676610000000000 I
   0.0000000000000000    0.0000000000000000    0.9202930000000000 I
   0.6666670000000000    0.3333330000000000    0.1308120000000000 I
   0.3333329999999999    0.6666670000000000    0.4218200000000000 I
   0.0000000000000000    0.0000000000000000    0.9729230000000000 I
   0.3333329999999999    0.6666670000000000    0.2113230000000000 I
   0.0000000000000000    0.0000000000000000    0.8150070000000000 I
   0.3333329999999999    0.6666670000000000    0.6849730000000001 I
   0.0000000000000000    0.0000000000000000    0.0781560000000000 I
   0.6666670000000000    0.3333330000000000    0.2360990000000000 I
   0.3333329999999999    0.6666670000000000    0.8955040000000000 I
   0.6666670000000000    0.3333330000000000    0.5518690000000001 I
   0.0000000000000000    0.0000000000000000    0.3939530000000000 I
   0.6666670000000000    0.3333330000000000    0.7623860000000000 I
   0.6666670000000000    0.3333330000000000    0.3413390000000000 I
   0.3333329999999999    0.6666670000000000    0.0007810000000000 I
   0.0000000000000000    0.0000000000000000    0.6044880000000000 I
   0.3333329999999999    0.6666670000000000    0.3691790000000000 I
   0.0000000000000000    0.0000000000000000    0.7097580000000000 I
   0.3333329999999999    0.6666670000000000    0.5270880000000000 I
   0.3333329999999999    0.6666670000000000    0.9481420000000000 I
   0.0000000000000000    0.0000000000000000    0.1834470000000000 I
   0.3333329999999999    0.6666670000000000    0.7902380000000000 I
   0.3333329999999999    0.6666670000000000    0.5797160000000000 I
   0.3333329999999999    0.6666670000000000    0.6323520000000000 I
   0.0000000000000000    0.0000000000000000    0.4992370000000000 I
   0.3333329999999999    0.6666670000000000    0.1586750000000000 I
   0.3333329999999999    0.6666670000000000    0.1060230000000000 I
   0.3333329999999999    0.6666670000000000    0.3165580000000000 I
