Rb3 Re1
1.0
  -3.0215830000000001    3.0215830000000001    5.5719390000000004
   3.0215830000000001   -3.0215830000000001    5.5719390000000004
   3.0215830000000001    3.0215830000000001   -5.5719390000000004
Rb Re
3 1
direct
   0.7500000000000001    0.2500000000000000    0.5000000000000001 Rb
   0.2500000000000000    0.7500000000000001    0.5000000000000001 Rb
   0.5000000000000000    0.5000000000000000    0.0000000000000000 Rb
   0.0000000000000000    0.0000000000000000    0.0000000000000000 Re
