Cu21 Pd7
1.0
   3.7282579999999998    0.0000000000000000    0.0000000000000000
   0.0000000000000000    3.7282579999999998    0.0000000000000000
   0.0000000000000000    0.0000000000000000   25.8250640000000011
Cu Pd
21 7
direct
   0.5000000000000000    0.0000000000000000    0.1428990000000000 Cu
   0.5000000000000000    0.5000000000000000    0.9286310000000001 Cu
   0.0000000000000000    0.0000000000000000    0.6429410000000000 Cu
   0.5000000000000000    0.5000000000000000    0.7856800000000000 Cu
   0.5000000000000000    0.0000000000000000    0.2857190000000000 Cu
   0.0000000000000000    0.5000000000000000    0.7142810000000001 Cu
   0.5000000000000000    0.0000000000000000    0.8571010000000000 Cu
   0.5000000000000000    0.5000000000000000    0.0713690000000000 Cu
   0.5000000000000000    0.0000000000000000    0.5714220000000000 Cu
   0.0000000000000000    0.5000000000000000    0.1428990000000000 Cu
   0.0000000000000000    0.5000000000000000    0.4285780000000001 Cu
   0.5000000000000000    0.0000000000000000    0.7142810000000001 Cu
   0.0000000000000000    0.5000000000000000    0.8571010000000000 Cu
   0.0000000000000000    0.5000000000000000    0.5714220000000000 Cu
   0.0000000000000000    0.0000000000000000    0.3570590000000000 Cu
   0.5000000000000000    0.0000000000000000    0.4285780000000001 Cu
   0.5000000000000000    0.5000000000000000    0.2143200000000000 Cu
   0.0000000000000000    0.5000000000000000    0.2857190000000000 Cu
   0.0000000000000000    0.0000000000000000    0.5000000000000000 Cu
   0.0000000000000000    0.5000000000000000    0.0000000000000000 Cu
   0.5000000000000000    0.0000000000000000    0.0000000000000000 Cu
   0.5000000000000000    0.5000000000000000    0.3570600000000000 Pd
   0.0000000000000000    0.0000000000000000    0.9285040000000001 Pd
   0.5000000000000000    0.5000000000000000    0.6429400000000000 Pd
   0.0000000000000000    0.0000000000000000    0.7856140000000000 Pd
   0.5000000000000000    0.5000000000000000    0.5000000000000000 Pd
   0.0000000000000000    0.0000000000000000    0.0714960000000000 Pd
   0.0000000000000000    0.0000000000000000    0.2143860000000000 Pd
