Er2 Be26
1.0
   0.0000000000000000    5.0700419999999999    5.0700419999999999
   5.0700419999999999    0.0000000000000000    5.0700419999999999
   5.0700419999999999    5.0700419999999999    0.0000000000000000
Er Be
2 26
direct
   0.2500000000000001    0.2500000000000000    0.2500000000000001 Er
   0.7500000000000000    0.7500000000000000    0.7500000000000001 Er
   0.5000000000000001    0.5000000000000000    0.5000000000000001 Be
   0.0000000000000000    0.0000000000000000    0.0000000000000000 Be
   0.7911770000000002    0.5628920000000001    0.2088230000000001 Be
   0.2088230000000000    0.4371080000000000    0.7911770000000002 Be
   0.5628919999999999    0.7911770000000002    0.4371080000000001 Be
   0.4371079999999999    0.2088230000000001    0.5628920000000001 Be
   0.2911770000000000    0.9371080000000002    0.7088230000000001 Be
   0.7088230000000000    0.0628920000000001    0.2911770000000000 Be
   0.9371080000000001    0.2911770000000001    0.0628919999999999 Be
   0.0628920000000000    0.7088230000000001    0.9371080000000002 Be
   0.2088230000000001    0.7911770000000001    0.5628919999999999 Be
   0.7911770000000001    0.2088230000000001    0.4371080000000001 Be
   0.4371079999999999    0.5628919999999999    0.7911770000000005 Be
   0.5628919999999999    0.4371079999999999    0.2088230000000001 Be
   0.7088230000000000    0.2911770000000001    0.9371080000000002 Be
   0.2911770000000000    0.7088230000000001    0.0628919999999999 Be
   0.0628920000000000    0.9371080000000001    0.2911770000000000 Be
   0.9371079999999999    0.0628920000000001    0.7088230000000001 Be
   0.5628919999999999    0.2088230000000001    0.7911770000000004 Be
   0.4371079999999999    0.7911770000000002    0.2088230000000001 Be
   0.7911770000000002    0.4371079999999999    0.5628920000000001 Be
   0.2088230000000001    0.5628919999999999    0.4371079999999999 Be
   0.9371080000000002    0.7088230000000001    0.2911770000000001 Be
   0.0628920000000001    0.2911770000000000    0.7088230000000002 Be
   0.2911770000000001    0.0628920000000000    0.9371080000000003 Be
   0.7088230000000001    0.9371080000000001    0.0628920000000000 Be
