Lu2 Zn4
1.0
  -2.2119059999999999    3.4736889999999998    3.7510930000000000
   2.2119059999999999   -3.4736889999999998    3.7510930000000000
   2.2119059999999999    3.4736889999999998   -3.7510930000000000
Lu Zn
2 4
direct
   0.7861419999999999    0.5361419999999999    0.2500000000000000 Lu
   0.2138580000000000    0.4638579999999999    0.7500000000000000 Lu
   0.2120450000000000    0.1656820000000000    0.0463640000000000 Zn
   0.7879550000000000    0.8343179999999999    0.9536360000000000 Zn
   0.6193180000000000    0.1656819999999999    0.4536360000000000 Zn
   0.3806820000000000    0.8343179999999999    0.5463640000000000 Zn
