Pd2 I4
1.0
   3.9003399999999999    0.0000000000000000    0.0000000000000000
   0.0000000000000000    7.0881980000000002    0.0000000000000000
   0.0000000000000000    0.0000000000000000    9.0084359999999997
Pd I
2 4
direct
   0.0000000000000000    0.0000000000000000    0.0000000000000000 Pd
   0.5000000000000000    0.5000000000000000    0.4999999999999999 Pd
   0.0000000000000000    0.3080970000000000    0.3740330000000000 I
   0.5000000000000000    0.8080970000000000    0.1259670000000000 I
   0.5000000000000000    0.1919030000000000    0.8740329999999999 I
   0.0000000000000000    0.6919030000000000    0.6259669999999999 I
