K6 Mg2
1.0
   4.3178749999999999   -7.4787780000000001    0.0000000000000000
   4.3178749999999999    7.4787780000000001    0.0000000000000000
   0.0000000000000000    0.0000000000000000    6.8158019999999997
K Mg
6 2
direct
   0.1751280000000000    0.3502560000000000    0.2500000000000000 K
   0.1751280000000000    0.8248719999999999    0.2500000000000000 K
   0.6497440000000000    0.8248719999999998    0.2500000000000000 K
   0.3502560000000000    0.1751280000000000    0.7500000000000001 K
   0.8248720000000000    0.1751280000000000    0.7500000000000001 K
   0.8248719999999999    0.6497439999999999    0.7500000000000001 K
   0.6666670000000000    0.3333329999999999    0.2500000000000000 Mg
   0.3333330000000000    0.6666670000000000    0.7500000000000001 Mg
