Sc2 Ga4
1.0
   2.0597520000000000   -6.3680399999999997    0.0000000000000000
   2.0597520000000000    6.3680399999999997    0.0000000000000000
   0.0000000000000000    0.0000000000000000    4.1454069999999996
Sc Ga
2 4
direct
   0.6529470000000002    0.3470530000000001    0.0000000000000000 Sc
   0.3470530000000001    0.6529470000000002    0.0000000000000000 Sc
   0.0000000000000000    0.0000000000000000    0.0000000000000000 Ga
   0.5000000000000000    0.5000000000000000    0.5000000000000000 Ga
   0.8233960000000000    0.1766040000000000    0.5000000000000000 Ga
   0.1766040000000000    0.8233960000000000    0.5000000000000000 Ga
