Si4 O8
1.0
  -2.6447889999999998    4.3990239999999998    4.9672950000000000
   2.6447889999999998   -4.3990239999999998    4.9672950000000000
   2.6447889999999998    4.3990239999999998   -4.9672950000000000
Si O
4 8
direct
   0.9417990000000001    0.0922499999999999    0.8495500000000000 Si
   0.7427000000000000    0.5922500000000001    0.1504500000000000 Si
   0.0582010000000000    0.9077499999999999    0.1504500000000000 Si
   0.2573000000000000    0.4077500000000001    0.8495500000000001 Si
   0.1502090000000000    0.2499999999999999    0.9002090000000000 O
   0.8497910000000001    0.7500000000000000    0.0997910000000000 O
   0.8081680000000000    0.8081680000000000    0.5000000000000000 O
   0.1918320000000000    0.6918320000000000   -0.0000000000000000 O
   0.1918320000000000    0.1918320000000000    0.5000000000000000 O
   0.8081680000000000    0.3081680000000001    0.0000000000000000 O
   0.0000000000000000    0.0000000000000000    0.0000000000000000 O
   0.5000000000000000    0.5000000000000000    0.0000000000000000 O
