Ti12 Sn10
1.0
   4.6535729999999997   -8.0602250000000009    0.0000000000000000
   4.6535729999999997    8.0602250000000009    0.0000000000000000
   0.0000000000000000    0.0000000000000000    5.7227620000000003
Ti Sn
12 10
direct
   0.8434069999999999    0.6868140000000003    0.7500000000000000 Ti
   0.1565929999999998    0.8434070000000002    0.2500000000000000 Ti
   0.6868139999999999    0.8434070000000002    0.2500000000000000 Ti
   0.3131860000000000    0.1565930000000001    0.7500000000000000 Ti
   0.8434069999999999    0.1565930000000000    0.7500000000000000 Ti
   0.1565930000000000    0.3131860000000001    0.2500000000000000 Ti
   0.5000000000000000   -0.0000000000000000    0.5000000000000000 Ti
   0.4999999999999999    0.5000000000000001    0.0000000000000000 Ti
  -0.0000000000000001    0.5000000000000001    0.0000000000000000 Ti
  -0.0000000000000001    0.5000000000000001    0.5000000000000000 Ti
   0.5000000000000000   -0.0000000000000000    0.0000000000000000 Ti
   0.4999999999999999    0.5000000000000001    0.5000000000000000 Ti
   0.2044360000000000    0.4088720000000001    0.7500000000000000 Sn
   0.7955639999999999    0.2044360000000000    0.2500000000000000 Sn
   0.4088720000000000    0.2044360000000001    0.2500000000000000 Sn
   0.5911279999999999    0.7955640000000003    0.7500000000000000 Sn
   0.2044359999999998    0.7955640000000003    0.7500000000000000 Sn
   0.7955639999999999    0.5911280000000002    0.2500000000000000 Sn
   0.6666669999999999    0.3333330000000000    0.7500000000000000 Sn
   0.3333329999999998    0.6666670000000001    0.2500000000000000 Sn
   0.0000000000000000    0.0000000000000000    0.5000000000000000 Sn
   0.0000000000000000    0.0000000000000000    0.0000000000000000 Sn
