Pt2 O12
1.0
   3.6878609999999998    4.5314360000000002    0.0000000000000000
  -3.6878609999999998    4.5314360000000002    0.0000000000000000
   0.0000000000000000    1.6171310000000001    5.5975299999999999
Pt O
2 12
direct
   0.0000000000000001    0.5000000000000000    0.4999999999999999 Pt
   0.4999999999999999    0.0000000000000000    0.0000000000000000 Pt
   0.8427950000000000    0.2054520000000001    0.6287669999999999 O
   0.7945479999999999    0.1572050000000001    0.8712330000000000 O
   0.1572050000000002    0.7945479999999999    0.3712330000000000 O
   0.2054520000000001    0.8427950000000000    0.1287670000000000 O
   0.2811220000000001    0.3802650000000001    0.6752610000000000 O
   0.6197350000000001    0.7188780000000000    0.8247389999999999 O
   0.7188780000000000    0.6197350000000000    0.3247390000000000 O
   0.3802650000000001    0.2811220000000001    0.1752610000000000 O
   0.8602160000000001    0.6596610000000002    0.7907049999999999 O
   0.3403390000000000    0.1397840000000000    0.7092949999999999 O
   0.1397840000000000    0.3403390000000001    0.2092950000000000 O
   0.6596610000000001    0.8602160000000001    0.2907049999999999 O
