Tl4 P20
1.0
   6.5211969999999999    0.0000000000000000    0.0000000000000000
   0.0000000000000000    7.2635649999999998    0.0000000000000000
   0.0000000000000000    0.0000000000000000   12.3959460000000004
Tl P
4 20
direct
   0.5000000000000000    0.0314390000000000    0.3398570000000000 Tl
   0.5000000000000000    0.9685610000000000    0.8398570000000000 Tl
   0.0000000000000000    0.7752030000000000    0.5011320000000000 Tl
   0.0000000000000000    0.2247970000000000    0.0011320000000000 Tl
   0.5000000000000000    0.3574140000000001    0.0419400000000000 P
   0.5000000000000000    0.6425860000000000    0.5419400000000000 P
   0.5000000000000000    0.3901380000000000    0.2147880000000000 P
   0.5000000000000000    0.6098620000000000    0.7147880000000000 P
   0.2492690000000000    0.2285370000000000    0.6104080000000000 P
   0.7507310000000000    0.7714630000000001    0.1104080000000000 P
   0.7507310000000000    0.2285370000000000    0.6104080000000000 P
   0.2492690000000000    0.7714630000000001    0.1104080000000000 P
   0.2540920000000000    0.4112830000000000    0.7595710000000000 P
   0.7459080000000000    0.5887170000000002    0.2595710000000000 P
   0.7459080000000000    0.4112830000000000    0.7595710000000000 P
   0.2540920000000000    0.5887170000000002    0.2595710000000000 P
   0.0000000000000000    0.6126870000000000    0.7303900000000000 P
   0.0000000000000000    0.3873130000000001    0.2303900000000000 P
   0.0000000000000000    0.8123359999999999    0.8624460000000000 P
   0.0000000000000000    0.1876640000000000    0.3624460000000000 P
   0.0000000000000000    0.6429940000000001    0.0098510000000000 P
   0.0000000000000000    0.3570060000000000    0.5098510000000001 P
   0.5000000000000000    0.3476430000000000    0.5113380000000000 P
   0.5000000000000000    0.6523570000000001    0.0113380000000000 P
