Zn3 Pt1
1.0
  -1.8936519999999999    1.8936519999999999    4.0593740000000000
   1.8936519999999999   -1.8936519999999999    4.0593740000000000
   1.8936519999999999    1.8936519999999999   -4.0593740000000000
Zn Pt
3 1
direct
   0.7500000000000000    0.2500000000000000    0.5000000000000000 Zn
   0.2500000000000000    0.7500000000000000    0.4999999999999999 Zn
   0.5000000000000000    0.5000000000000000    0.0000000000000000 Zn
   0.0000000000000000    0.0000000000000000    0.0000000000000000 Pt
