Zn53 Co7
1.0
   7.7185350000000001    0.0000000000000000    0.0000000000000000
   0.0000000000000000   11.2514819999999993    0.0000000000000000
   0.0000000000000000    5.6002169999999998    9.7743929999999999
Zn Co
53 7
direct
   0.4274640000000001    0.1111520000000000    0.5174160000000000 Zn
   0.7616420000000000    0.3711940000000000    0.1112490000000000 Zn
   0.0947420000000000    0.5161870000000000    0.3723730000000000 Zn
   0.4274640000000001    0.8888480000000000    0.4825840000000000 Zn
   0.7616420000000000    0.6288059999999999    0.8887510000000001 Zn
   0.0947420000000000    0.4838130000000001    0.6276270000000000 Zn
   0.6955520000000001    0.5165390000000000    0.3749150000000000 Zn
   0.0289180000000000    0.1091260000000001    0.5152490000000000 Zn
   0.3621200000000001    0.3746210000000000    0.1084110000000000 Zn
   0.6955520000000001    0.4834610000000000    0.6250850000000000 Zn
   0.0289180000000000    0.8908739999999999    0.4847510000000000 Zn
   0.3621200000000001    0.6253790000000000    0.8915890000000000 Zn
   0.2264580000000000    0.2677680000000000    0.5764810000000000 Zn
   0.5598200000000000    0.1565380000000000    0.2684980000000000 Zn
   0.8928460000000000    0.5762240000000000    0.1558070000000000 Zn
   0.2264580000000000    0.7322320000000001    0.4235190000000000 Zn
   0.5598200000000000    0.8434620000000002    0.7315020000000000 Zn
   0.8928460000000000    0.4237759999999999    0.8441930000000000 Zn
   0.7205330000000001    0.2169240000000000    0.8109160000000000 Zn
   0.0587830000000000    0.9711540000000000    0.2216000000000000 Zn
   0.3951260000000000    0.8100149999999999    0.9732150000000002 Zn
   0.7205330000000001    0.7830760000000000    0.1890840000000000 Zn
   0.0587830000000000    0.0288460000000000    0.7784000000000000 Zn
   0.3951260000000000    0.1899850000000000    0.0267850000000000 Zn
   0.4026180000000000    0.3837950000000000    0.3386850000000000 Zn
   0.7366960000000001    0.2776590000000000    0.3836810000000000 Zn
   0.0693910000000000    0.3389170000000000    0.2771690000000000 Zn
   0.4026180000000000    0.6162050000000001    0.6613150000000001 Zn
   0.7366960000000001    0.7223410000000001    0.6163190000000000 Zn
   0.0693910000000000    0.6610829999999999    0.7228310000000001 Zn
   0.3995120000000000    0.5000000000000000    0.5000000000000000 Zn
   0.7332430000000001    0.0000000000000000    0.5000000000000000 Zn
   0.0661850000000000    0.5000000000000000    0.0000000000000000 Zn
   0.8969120000000002    0.3133580000000001    0.5734210000000000 Zn
   0.2305890000000000    0.1134420000000000    0.3132240000000000 Zn
   0.5637930000000000    0.5723240000000002    0.1136560000000000 Zn
   0.8969120000000002    0.6866420000000001    0.4265790000000000 Zn
   0.2305890000000000    0.8865580000000001    0.6867760000000001 Zn
   0.5637930000000000    0.4276760000000000    0.8863440000000001 Zn
   0.4039370000000000    0.3126570000000001    0.7567660000000000 Zn
   0.7366360000000000    0.9306940000000001    0.3124180000000000 Zn
   0.0701440000000000    0.7562229999999999    0.9306650000000001 Zn
   0.4039370000000000    0.6873430000000001    0.2432340000000000 Zn
   0.7366360000000000    0.0693060000000001    0.6875820000000000 Zn
   0.0701440000000000    0.2437770000000000    0.0693350000000000 Zn
   0.8989420000000001    0.0000000000000000    0.0000000000000000 Zn
   0.2411140000000000    0.0000000000000000    0.0000000000000000 Zn
   0.4189530000000001    0.0673690000000001    0.7741760000000000 Zn
   0.7438990000000001    0.1586060000000000    0.0677810000000000 Zn
   0.0807940000000000    0.7694910000000001    0.1630750000000000 Zn
   0.4189530000000001    0.9326309999999999    0.2258240000000000 Zn
   0.7438990000000001    0.8413940000000000    0.9322190000000000 Zn
   0.0807940000000000    0.2305090000000000    0.8369250000000000 Zn
   0.5657080000000000    0.2841160000000001    0.5754970000000000 Co
   0.8987660000000001    0.1397210000000000    0.2838460000000000 Co
   0.2328960000000000    0.5757220000000000    0.1400810000000000 Co
   0.5657080000000000    0.7158839999999999    0.4245030000000000 Co
   0.8987660000000001    0.8602790000000001    0.7161540000000000 Co
   0.2328960000000000    0.4242780000000000    0.8599189999999999 Co
   0.5698390000000000    0.0000000000000000    0.0000000000000000 Co
