Sr1 Eu3
1.0
  -2.8135479999999999    2.8135479999999999    5.8417750000000002
   2.8135479999999999   -2.8135479999999999    5.8417750000000002
   2.8135479999999999    2.8135479999999999   -5.8417750000000002
Sr Eu
1 3
direct
   0.0000000000000000    0.0000000000000000    0.0000000000000000 Sr
   0.7500000000000000    0.2500000000000001    0.5000000000000000 Eu
   0.2500000000000001    0.7500000000000000    0.5000000000000000 Eu
   0.5000000000000000    0.5000000000000000    0.0000000000000000 Eu
