Pr4 I10
1.0
   4.3647929999999997    0.0000000000000000    0.0000000000000000
   0.0000000000000000    9.4169730000000005    0.0000000000000000
   0.0000000000000000    1.2223800000000000   14.9531530000000004
Pr I
4 10
direct
   0.7500000000000000    0.1023650000000000    0.8487479999999999 Pr
   0.2500000000000000    0.8976350000000000    0.1512520000000000 Pr
   0.7500000000000000    0.5860000000000000    0.3424810000000000 Pr
   0.2500000000000000    0.4139999999999999    0.6575190000000001 Pr
   0.7500000000000000    0.6343670000000000    0.7150220000000002 I
   0.2500000000000000    0.3656330000000000    0.2849780000000000 I
   0.7500000000000000    0.1336590000000000    0.0711450000000000 I
   0.2500000000000000    0.8663410000000001    0.9288550000000001 I
   0.2500000000000000    0.6808490000000000    0.4853290000000000 I
   0.7500000000000000    0.3191510000000000    0.5146710000000000 I
   0.2500000000000000    0.0652860000000000    0.6915350000000000 I
   0.7500000000000000    0.9347139999999998    0.3084650000000000 I
   0.2500000000000000    0.3478559999999999    0.8750190000000000 I
   0.7500000000000000    0.6521439999999999    0.1249810000000000 I
