Cr12 N24
1.0
   5.3625040000000004    0.0000000000000000    0.0000000000000000
   0.0000000000000000    9.2990429999999993    0.0000000000000000
   0.0000000000000000    0.0000000000000000   11.4041720000000009
Cr N
12 24
direct
   0.7499999999999999    0.5000000000000000    0.7146199999999999 Cr
   0.7499999999999999    0.0000000000000000    0.2146200000000000 Cr
   0.2500000000000000    0.5000000000000000    0.2853800000000000 Cr
   0.2500000000000000    0.0000000000000000    0.7853799999999999 Cr
   0.9388160000000000    0.7048240000000001    0.0837310000000000 Cr
   0.5611839999999999    0.2951760000000000    0.0837310000000000 Cr
   0.5611839999999999    0.2048240000000000    0.5837310000000000 Cr
   0.9388160000000000    0.7951760000000000    0.5837310000000000 Cr
   0.0611840000000000    0.2048240000000000    0.4162689999999999 Cr
   0.4388160000000000    0.7951760000000000    0.4162689999999999 Cr
   0.4388160000000000    0.7048240000000001    0.9162689999999999 Cr
   0.0611840000000000    0.2951760000000000    0.9162689999999999 Cr
   0.8577620000000000    0.3275690000000001    0.0308180000000000 N
   0.6422380000000000    0.6724310000000001    0.0308180000000000 N
   0.6422380000000000    0.8275690000000000    0.5308179999999999 N
   0.8577620000000000    0.1724310000000000    0.5308179999999999 N
   0.1422380000000000    0.8275690000000000    0.4691820000000000 N
   0.3577620000000000    0.1724310000000000    0.4691820000000000 N
   0.3577620000000000    0.3275690000000001    0.9691819999999999 N
   0.1422380000000000    0.6724310000000001    0.9691819999999999 N
   0.9524950000000000    0.0958650000000000    0.3007960000000000 N
   0.5475050000000000    0.9041350000000001    0.3007960000000000 N
   0.5475050000000000    0.5958650000000001    0.8007960000000000 N
   0.9524950000000000    0.4041350000000000    0.8007960000000000 N
   0.0730920000000000    0.3807430000000000    0.3712750000000000 N
   0.4269080000000000    0.6192570000000001    0.3712750000000000 N
   0.4269080000000000    0.8807430000000002    0.8712749999999999 N
   0.0730920000000000    0.1192570000000000    0.8712749999999999 N
   0.9269079999999998    0.8807430000000002    0.1287250000000000 N
   0.5730920000000000    0.1192570000000000    0.1287250000000000 N
   0.5730920000000000    0.3807430000000000    0.6287250000000000 N
   0.9269079999999998    0.6192570000000001    0.6287250000000000 N
   0.0475050000000000    0.5958650000000001    0.1992040000000000 N
   0.4524949999999999    0.4041350000000000    0.1992040000000000 N
   0.4524949999999999    0.0958650000000000    0.6992040000000000 N
   0.0475050000000000    0.9041350000000001    0.6992040000000000 N
