Ca6 Dy2
1.0
   3.7720690000000001   -6.5334159999999999    0.0000000000000000
   3.7720690000000001    6.5334159999999999    0.0000000000000000
   0.0000000000000000    0.0000000000000000    6.2369279999999998
Ca Dy
6 2
direct
   0.1704710000000000    0.3409410000000000    0.2500000000000000 Ca
   0.6590590000000001    0.8295290000000000    0.2500000000000000 Ca
   0.1704710000000000    0.8295290000000000    0.2500000000000000 Ca
   0.8295290000000000    0.6590590000000001    0.7500000000000001 Ca
   0.3409410000000000    0.1704710000000000    0.7500000000000001 Ca
   0.8295290000000000    0.1704710000000000    0.7500000000000001 Ca
   0.3333330000000000    0.6666670000000000    0.7500000000000001 Dy
   0.6666670000000000    0.3333330000000000    0.2500000000000000 Dy
