Te8 O18
1.0
   5.7949430000000000   -4.7430170000000000    0.0000000000000000
   5.7949430000000000    4.7430170000000000    0.0000000000000000
   1.9129010000000000    0.0000000000000000    7.2400539999999998
Te O
8 18
direct
   0.5964420000000000    0.2899220000000000    0.8402430000000000 Te
   0.8402429999999997    0.5964419999999998    0.2899220000000000 Te
   0.2899220000000001    0.8402430000000001    0.5964420000000000 Te
   0.4035579999999999    0.7100780000000000    0.1597570000000000 Te
   0.1597570000000001    0.4035579999999999    0.7100779999999999 Te
   0.7100780000000000    0.1597570000000000    0.4035580000000000 Te
   0.1835410000000000    0.1835410000000000    0.1835410000000000 Te
   0.8164589999999999    0.8164589999999999    0.8164589999999999 Te
   0.5761120000000001    0.7715090000000001    0.2884209999999999 O
   0.2884210000000000    0.5761120000000000    0.7715089999999999 O
   0.7715090000000000    0.2884210000000001    0.5761119999999998 O
   0.4238880000000000    0.2284910000000000    0.7115789999999999 O
   0.7115789999999999    0.4238879999999999    0.2284910000000000 O
   0.2284909999999999    0.7115789999999999    0.4238879999999999 O
   0.7224900000000000    0.9170490000000000    0.5875619999999999 O
   0.5875620000000000    0.7224900000000000    0.9170490000000000 O
   0.0429370000000002    0.9284420000000001    0.7176270000000000 O
   0.9284420000000000    0.7176270000000000    0.0429370000000000 O
   0.7176270000000000    0.0429370000000000    0.9284419999999999 O
   0.9570630000000000    0.0715579999999999    0.2823730000000000 O
   0.0715580000000000    0.2823730000000000    0.9570629999999999 O
   0.2823730000000000    0.9570629999999999    0.0715580000000000 O
   0.0829510000000000    0.4124380000000001    0.2775100000000000 O
   0.4124380000000000    0.2775100000000000    0.0829510000000000 O
   0.2775100000000000    0.0829510000000000    0.4124380000000000 O
   0.9170489999999999    0.5875619999999999    0.7224900000000000 O
