Eu1 Al4
1.0
  -2.1843620000000001    2.1843620000000001    5.6510850000000001
   2.1843620000000001   -2.1843620000000001    5.6510850000000001
   2.1843620000000001    2.1843620000000001   -5.6510850000000001
Eu Al
1 4
direct
   0.0000000000000000    0.0000000000000000    0.0000000000000000 Eu
   0.7500000000000000    0.2500000000000000    0.5000000000000000 Al
   0.2500000000000000    0.7500000000000000    0.5000000000000000 Al
   0.6136150000000000    0.6136150000000000    0.0000000000000000 Al
   0.3863840000000000    0.3863840000000000    0.0000000000000000 Al
