Ba6 N2
1.0
   3.8684360000000000   -6.7003269999999997    0.0000000000000000
   3.8684360000000000    6.7003269999999997    0.0000000000000000
   0.0000000000000000    0.0000000000000000    7.0986380000000002
Ba N
6 2
direct
   0.0000000000000001    0.7277439999999998    0.7500000000000000 Ba
   0.0000000000000000    0.2722560000000000    0.2500000000000000 Ba
   0.7277440000000001    0.7277439999999998    0.2500000000000000 Ba
   0.7277439999999999   -0.0000000000000000    0.7500000000000000 Ba
   0.2722560000000001    0.2722560000000000    0.7500000000000000 Ba
   0.2722560000000000    0.0000000000000000    0.2500000000000000 Ba
   0.0000000000000000    0.0000000000000000    0.5000000000000000 N
   0.0000000000000000    0.0000000000000000    0.0000000000000000 N
