Ba20 Hg103
1.0
   0.0000000000000000   12.1320160000000001   12.1320160000000001
  12.1320160000000001    0.0000000000000000   12.1320160000000001
  12.1320160000000001   12.1320160000000001    0.0000000000000000
Ba Hg
20 103
direct
   0.5952490000000000    0.5952490000000000    0.2142529999999998 Ba
   0.5952490000000000    0.2142530000000001    0.5952489999999999 Ba
   0.2142530000000001    0.5952490000000001    0.5952489999999999 Ba
   0.5952490000000001    0.5952490000000001    0.5952489999999999 Ba
   0.8418110000000000    0.8418110000000001    0.4745679999999999 Ba
   0.8418110000000000    0.4745680000000002    0.8418109999999998 Ba
   0.4745680000000002    0.8418110000000000    0.8418109999999998 Ba
   0.8418110000000001    0.8418110000000000    0.8418109999999996 Ba
   0.1834800000000001    0.1834800000000001    0.8165199999999999 Ba
   0.8165200000000000    0.1834800000000001    0.8165199999999999 Ba
   0.1834800000000001    0.8165200000000000    0.8165199999999999 Ba
   0.8165200000000000    0.8165200000000000    0.1834799999999998 Ba
   0.1834800000000001    0.8165199999999999    0.1834799999999999 Ba
   0.8165199999999999    0.1834800000000001    0.1834799999999999 Ba
   0.0551070000000000    0.0551070000000000    0.4448929999999999 Ba
   0.4448930000000000    0.0551070000000001    0.4448930000000000 Ba
   0.0551070000000000    0.4448930000000000    0.4448930000000000 Ba
   0.4448930000000000    0.4448930000000000    0.0551069999999999 Ba
   0.0551070000000000    0.4448930000000000    0.0551069999999999 Ba
   0.4448930000000000    0.0551070000000000    0.0551069999999999 Ba
   0.4201340000000001    0.8260820000000000    0.1065099999999999 Hg
   0.6472740000000000    0.4201340000000001    0.1065100000000000 Hg
   0.8260820000000000    0.6472740000000001    0.1065099999999998 Hg
   0.6472740000000001    0.8260820000000000    0.1065099999999998 Hg
   0.8260820000000000    0.4201340000000001    0.1065099999999998 Hg
   0.4201340000000001    0.6472740000000000    0.1065100000000000 Hg
   0.6472740000000001    0.1065100000000001    0.8260819999999999 Hg
   0.8260820000000000    0.1065100000000000    0.4201340000000000 Hg
   0.4201340000000001    0.1065100000000001    0.6472739999999999 Hg
   0.4201340000000001    0.1065100000000001    0.8260819999999998 Hg
   0.6472740000000001    0.1065100000000001    0.4201340000000000 Hg
   0.8260820000000000    0.1065100000000000    0.6472739999999999 Hg
   0.1065100000000001    0.6472740000000000    0.4201340000000000 Hg
   0.1065100000000001    0.8260819999999999    0.6472739999999999 Hg
   0.1065100000000001    0.4201340000000002    0.8260819999999998 Hg
   0.1065100000000001    0.4201340000000000    0.6472739999999999 Hg
   0.1065100000000001    0.6472740000000001    0.8260819999999996 Hg
   0.1065100000000000    0.8260820000000000    0.4201340000000001 Hg
   0.8260820000000000    0.4201340000000001    0.6472739999999998 Hg
   0.4201340000000001    0.6472740000000000    0.8260819999999999 Hg
   0.6472740000000001    0.8260820000000001    0.4201339999999998 Hg
   0.8260820000000000    0.6472740000000000    0.4201339999999998 Hg
   0.4201340000000001    0.8260820000000000    0.6472739999999998 Hg
   0.6472740000000001    0.4201340000000001    0.8260819999999999 Hg
   0.6186160000000003    0.7950730000000003    0.9676949999999996 Hg
   0.6186160000000002    0.6186160000000002    0.9676949999999996 Hg
   0.7950730000000003    0.6186160000000002    0.9676949999999996 Hg
   0.6186160000000003    0.9676950000000000    0.7950729999999999 Hg
   0.7950730000000003    0.9676949999999999    0.6186159999999999 Hg
   0.6186160000000002    0.9676949999999999    0.6186159999999998 Hg
   0.9676950000000000    0.6186160000000002    0.6186159999999998 Hg
   0.9676949999999999    0.7950730000000001    0.6186159999999999 Hg
   0.9676949999999999    0.6186160000000003    0.7950729999999999 Hg
   0.7950730000000003    0.6186160000000002    0.6186159999999999 Hg
   0.6186160000000002    0.6186160000000002    0.7950730000000000 Hg
   0.6186160000000002    0.7950730000000003    0.6186159999999999 Hg
   0.9925929999999998    0.3015070000000002    0.7133069999999998 Hg
   0.9925930000000001    0.9925930000000001    0.7133069999999997 Hg
   0.3015070000000002    0.9925929999999998    0.7133069999999998 Hg
   0.9925929999999998    0.7133070000000001    0.3015070000000001 Hg
   0.3015070000000002    0.7133070000000001    0.9925929999999997 Hg
   0.9925930000000001    0.7133070000000000    0.9925929999999997 Hg
   0.7133069999999999    0.9925929999999999    0.9925929999999997 Hg
   0.7133070000000000    0.3015070000000002    0.9925929999999997 Hg
   0.7133070000000000    0.9925929999999998    0.3015069999999999 Hg
   0.3015070000000001    0.9925929999999999    0.9925929999999997 Hg
   0.9925929999999999    0.9925929999999999    0.3015069999999997 Hg
   0.9925930000000001    0.3015070000000001    0.9925929999999997 Hg
   0.4553070000000002    0.8198450000000002    0.2695399999999999 Hg
   0.4553070000000001    0.4553070000000001    0.2695399999999999 Hg
   0.8198450000000002    0.4553070000000002    0.2695399999999999 Hg
   0.4553070000000002    0.2695400000000001    0.8198450000000000 Hg
   0.8198450000000002    0.2695400000000000    0.4553070000000000 Hg
   0.4553070000000001    0.2695400000000001    0.4553070000000000 Hg
   0.2695400000000001    0.4553070000000001    0.4553070000000000 Hg
   0.2695400000000001    0.8198450000000000    0.4553070000000000 Hg
   0.2695400000000001    0.4553070000000001    0.8198449999999998 Hg
   0.8198450000000002    0.4553070000000001    0.4553069999999999 Hg
   0.4553070000000001    0.4553070000000001    0.8198449999999999 Hg
   0.4553070000000002    0.8198450000000002    0.4553069999999999 Hg
   0.2011320000000000    0.2011320000000000    0.3966039999999999 Hg
   0.2011320000000000    0.3966040000000000    0.2011319999999999 Hg
   0.3966040000000000    0.2011320000000000    0.2011319999999999 Hg
   0.2011320000000000    0.2011320000000000    0.2011319999999999 Hg
   0.3264820000000000    0.3264820000000000    0.0205549999999999 Hg
   0.3264820000000000    0.0205550000000000    0.3264819999999999 Hg
   0.0205550000000000    0.3264819999999999    0.3264819999999998 Hg
   0.3264820000000000    0.3264820000000000    0.3264819999999999 Hg
   0.4542500000000001    0.4542500000000000    0.6372499999999999 Hg
   0.4542500000000001    0.6372500000000000    0.4542499999999998 Hg
   0.6372500000000001    0.4542500000000001    0.4542499999999999 Hg
   0.4542500000000000    0.4542500000000000    0.4542499999999999 Hg
   0.0486480000000001    0.0486480000000001    0.8540549999999999 Hg
   0.0486480000000000    0.8540550000000000    0.0486479999999999 Hg
   0.8540550000000000    0.0486480000000001    0.0486479999999999 Hg
   0.0486480000000000    0.0486480000000000    0.0486480000000000 Hg
   0.9265660000000000    0.9265660000000000    0.2203019999999999 Hg
   0.9265660000000000    0.2203020000000002    0.9265659999999999 Hg
   0.2203020000000001    0.9265660000000000    0.9265659999999997 Hg
   0.9265660000000001    0.9265660000000000    0.9265659999999997 Hg
   0.2412200000000002    0.9567600000000001    0.5608010000000000 Hg
   0.2412200000000001    0.2412200000000001    0.5608010000000000 Hg
   0.9567599999999999    0.2412200000000001    0.5608010000000000 Hg
   0.2412200000000002    0.5608010000000001    0.9567599999999999 Hg
   0.9567599999999999    0.5608010000000001    0.2412199999999998 Hg
   0.2412200000000001    0.5608010000000000    0.2412199999999999 Hg
   0.5608010000000000    0.2412200000000000    0.2412199999999999 Hg
   0.5608010000000001    0.9567599999999999    0.2412199999999998 Hg
   0.5608010000000001    0.2412200000000001    0.9567599999999997 Hg
   0.9567599999999999    0.2412200000000001    0.2412199999999999 Hg
   0.2412200000000001    0.2412200000000000    0.9567599999999998 Hg
   0.2412200000000001    0.9567599999999999    0.2412199999999999 Hg
   0.3233670000000001    0.3233670000000001    0.6766329999999998 Hg
   0.6766330000000000    0.3233670000000001    0.6766329999999998 Hg
   0.3233670000000001    0.6766330000000000    0.6766329999999998 Hg
   0.6766330000000000    0.6766330000000000    0.3233669999999998 Hg
   0.3233670000000001    0.6766329999999999    0.3233669999999999 Hg
   0.6766329999999999    0.3233670000000001    0.3233669999999999 Hg
   0.7500000000000001    0.7500000000000000    0.7499999999999997 Hg
   0.1236400000000001    0.1236400000000001    0.6290810000000000 Hg
   0.1236400000000001    0.6290810000000000    0.1236399999999999 Hg
   0.6290810000000000    0.1236400000000001    0.1236399999999999 Hg
   0.1236400000000000    0.1236400000000000    0.1236400000000000 Hg
