Ni6 As2
1.0
   2.5470020000000000   -4.4115359999999999    0.0000000000000000
   2.5470020000000000    4.4115359999999999    0.0000000000000000
   0.0000000000000000    0.0000000000000000    4.1095639999999998
Ni As
6 2
direct
   0.1670620000000000    0.3341240000000000    0.2500000000000000 Ni
   0.6658760000000000    0.8329379999999998    0.2500000000000000 Ni
   0.1670620000000000    0.8329380000000000    0.2500000000000000 Ni
   0.8329379999999998    0.6658760000000000    0.7500000000000001 Ni
   0.3341240000000000    0.1670620000000000    0.7500000000000001 Ni
   0.8329380000000000    0.1670620000000000    0.7500000000000001 Ni
   0.3333330000000000    0.6666670000000000    0.7500000000000001 As
   0.6666670000000000    0.3333330000000000    0.2500000000000000 As
