Sb8 S20
1.0
   7.8224340000000003    0.0000000000000000    0.0000000000000000
   0.0000000000000000    8.9616799999999994    0.0000000000000000
   0.0000000000000000    3.0520320000000001   13.3764140000000005
Sb S
8 20
direct
   0.0978780000000000    0.4612190000000000    0.6184870000000000 Sb
   0.5978780000000000    0.0387810000000000    0.3815130000000000 Sb
   0.9021220000000001    0.5387810000000000    0.3815130000000000 Sb
   0.4021220000000000    0.9612190000000000    0.6184870000000000 Sb
   0.1777570000000000    0.5899740000000001    0.8811099999999998 Sb
   0.6777570000000002    0.9100260000000001    0.1188900000000000 Sb
   0.8222430000000001    0.4100260000000000    0.1188900000000000 Sb
   0.3222430000000000    0.0899740000000000    0.8811099999999998 Sb
   0.2827930000000000    0.6457300000000000    0.7112450000000000 S
   0.7827930000000000    0.8542699999999999    0.2887550000000000 S
   0.7172070000000000    0.3542700000000000    0.2887550000000000 S
   0.2172070000000000    0.1457300000000001    0.7112450000000000 S
   0.3647380000000000    0.9295160000000000    0.1673590000000000 S
   0.8647380000000001    0.5704839999999999    0.8326410000000000 S
   0.6352620000000000    0.0704840000000000    0.8326410000000000 S
   0.1352620000000000    0.4295160000000000    0.1673590000000000 S
   0.3612060000000000    0.0886320000000000    0.2495480000000000 S
   0.8612060000000001    0.4113680000000000    0.7504520000000000 S
   0.6387940000000000    0.9113679999999997    0.7504520000000000 S
   0.1387940000000000    0.5886320000000000    0.2495480000000000 S
   0.0526780000000000    0.6949560000000000    0.4888510000000000 S
   0.5526780000000001    0.8050440000000000    0.5111490000000000 S
   0.9473220000000001    0.3050439999999999    0.5111490000000000 S
   0.4473220000000000    0.1949560000000000    0.4888510000000000 S
   0.7808110000000001    0.1732580000000000    0.0484290000000000 S
   0.2808110000000000    0.3267419999999999    0.9515709999999999 S
   0.2191890000000000    0.8267420000000000    0.9515709999999999 S
   0.7191890000000001    0.6732579999999999    0.0484290000000000 S
