Re4 C4
1.0
   1.4481350000000000   -2.5082439999999999    0.0000000000000000
   1.4481350000000000    2.5082439999999999    0.0000000000000000
   0.0000000000000000    0.0000000000000000   11.3173169999999992
Re C
4 4
direct
   0.3333330000000000    0.6666670000000000    0.8739440000000001 Re
   0.6666670000000000    0.3333330000000000    0.1260560000000000 Re
   0.6666670000000000    0.3333330000000000    0.3739440000000001 Re
   0.3333330000000000    0.6666670000000000    0.6260559999999999 Re
   0.0000000000000000    0.0000000000000000    0.5000000000000000 C
   0.0000000000000000    0.0000000000000000    0.0000000000000000 C
   0.3333330000000000    0.6666670000000000    0.2500000000000000 C
   0.6666670000000000    0.3333330000000000    0.7499999999999999 C
