Sb12 O24
1.0
  -6.5039550000000004    0.0000000000000000    0.0000000000000000
   3.0016530000000001    6.7891130000000004    0.0000000000000000
  -0.2077300000000000   -1.7089760000000001  -15.5692620000000002
Sb O
12 24
direct
   0.6882800000000000    0.3358310000000000    0.1543560000000000 Sb
   0.4801460000000000    0.9121980000000000    0.5275460000000000 Sb
   0.4035139999999999    0.2394840000000000    0.3197440000000000 Sb
   0.1099090000000000    0.7410839999999999    0.1630520000000000 Sb
   0.0545560000000000    0.1355680000000000    0.4619900000000001 Sb
   0.1833279999999999    0.3479580000000000    0.1637800000000000 Sb
   0.6508789999999999    0.7557660000000000    0.6775490000000001 Sb
   0.5203740000000000    0.5023620000000000    0.4979930000000001 Sb
   0.3340109999999999    0.6653979999999999    0.8419760000000001 Sb
   0.7428780000000003    0.0930040000000000    0.8453910000000001 Sb
   0.8563700000000001    0.6479930000000002    0.8505760000000001 Sb
   0.2696360000000000    0.1962240000000000    0.9441450000000001 Sb
   0.2932080000000001    0.5983480000000001    0.1121980000000000 O
   0.8856800000000001    0.2106750000000000    0.0978190000000000 O
   0.9940580000000001    0.4956509999999999    0.2319350000000000 O
   0.8166610000000000    0.5819060000000000    0.0993280000000000 O
   0.6534730000000000    0.3733960000000000    0.4086210000000000 O
   0.5692150000000000    0.1294690000000000    0.2362650000000000 O
   0.3827539999999999    0.2434540000000000    0.0831470000000000 O
   0.4996500000000001    0.4580570000000000    0.2370930000000000 O
   0.2252770000000001    0.0114400000000000    0.3835150000000001 O
   0.3129570000000000    0.2575670000000000    0.5467050000000000 O
   0.2482400000000000    0.3858750000000000    0.4038370000000000 O
   0.1201000000000000    0.1492510000000000    0.2434190000000000 O
   0.9040690000000000    0.8542350000000000    0.7617000000000002 O
   0.7521590000000000    0.5908880000000000    0.5910879999999999 O
   0.6035280000000000    0.7554090000000000    0.4462350000000000 O
   0.7438740000000000    0.9910600000000001    0.6105950000000001 O
   0.6167259999999999    0.8541930000000000    0.9096760000000002 O
   0.4885630000000000    0.5459320000000000    0.7530510000000001 O
   0.4915010000000000    0.9042700000000000    0.7579840000000001 O
   0.3715500000000000    0.6564140000000001    0.5865870000000000 O
   0.2839780000000000    0.4576120000000000    0.9176820000000000 O
   0.1711839999999999    0.8227199999999999    0.9040020000000001 O
   0.0414760000000000    0.5283790000000000    0.7795540000000001 O
   0.5696420000000000    0.2376270000000000    0.9047650000000002 O
