Si12 O24
1.0
   0.0000000000000000    5.7832960000000000    5.7832960000000000
   5.7832960000000000    0.0000000000000000    5.7832960000000000
   5.7832960000000000    5.7832960000000000    0.0000000000000000
Si O
12 24
direct
   0.3666140000000000    0.1250000000000001    0.6250000000000000 Si
   0.8833860000000000    0.1250000000000001    0.3666139999999998 Si
   0.1250000000000001    0.6250000000000000    0.3666139999999998 Si
   0.3666140000000001    0.8833860000000000    0.1249999999999999 Si
   0.1250000000000002    0.8833859999999999    0.6249999999999998 Si
   0.1250000000000001    0.3666140000000001    0.8833859999999999 Si
   0.6250000000000000    0.8833860000000000    0.3666139999999999 Si
   0.6250000000000000    0.1250000000000002    0.8833859999999998 Si
   0.8833859999999999    0.6250000000000000    0.1250000000000000 Si
   0.6250000000000000    0.3666140000000000    0.1250000000000000 Si
   0.8833860000000000    0.3666140000000001    0.6249999999999997 Si
   0.3666140000000002    0.6250000000000000    0.8833859999999999 Si
   0.2879730000000000    0.9620270000000001    0.6249999999999999 O
   0.2879730000000000    0.6250000000000000    0.1250000000000000 O
   0.9620270000000000    0.2879730000000001    0.1249999999999999 O
   0.6581430000000000    0.3418570000000000    0.3418569999999999 O
   0.9081430000000000    0.5918570000000001    0.9081429999999998 O
   0.5918570000000000    0.9081430000000001    0.5918569999999997 O
   0.9620270000000001    0.1250000000000001    0.6250000000000000 O
   0.3418570000000000    0.6581430000000001    0.6581429999999999 O
   0.2879730000000001    0.1250000000000001    0.9620270000000000 O
   0.1250000000000001    0.2879730000000000    0.6249999999999999 O
   0.6581430000000001    0.6581430000000000    0.3418569999999997 O
   0.5918570000000000    0.9081430000000001    0.9081429999999998 O
   0.1250000000000001    0.6250000000000001    0.9620270000000000 O
   0.3418570000000001    0.3418570000000000    0.6581429999999998 O
   0.9081430000000000    0.9081430000000001    0.5918569999999999 O
   0.3418570000000001    0.6581429999999999    0.3418569999999999 O
   0.6581430000000001    0.3418570000000000    0.6581429999999999 O
   0.6250000000000000    0.1250000000000001    0.2879730000000000 O
   0.1250000000000001    0.9620270000000000    0.2879730000000000 O
   0.5918570000000000    0.5918570000000001    0.9081430000000000 O
   0.6250000000000001    0.9620270000000001    0.1249999999999998 O
   0.9620270000000001    0.6250000000000001    0.2879729999999999 O
   0.9081430000000000    0.5918570000000000    0.5918569999999997 O
   0.6250000000000001    0.2879730000000001    0.9620270000000000 O
