Mo1 Ir4
1.0
  11.3339020000000001   -1.3742190000000001    0.0000000000000000
  11.3339020000000001    1.3742190000000001    0.0000000000000000
  11.1672799999999999    0.0000000000000000    2.3743780000000001
Mo Ir
1 4
direct
   0.0000000000000000    0.0000000000000000    0.0000000000000000 Mo
   0.6002960000000001    0.6002959999999999    0.6002960000000001 Ir
   0.1993170000000000    0.1993169999999999    0.1993170000000000 Ir
   0.8006830000000000    0.8006829999999998    0.8006830000000001 Ir
   0.3997040000000000    0.3997039999999999    0.3997040000000001 Ir
