Co4 B4
1.0
   3.0647700000000002    0.0000000000000000    0.0000000000000000
   0.0000000000000000    3.9216959999999998    0.0000000000000000
   0.0000000000000000    0.0000000000000000    5.1689829999999999
Co B
4 4
direct
   0.2500000000000000    0.3727020000000000    0.6772280000000001 Co
   0.7500000000000001    0.6272979999999999    0.3227720000000000 Co
   0.7500000000000001    0.8727019999999999    0.8227719999999999 Co
   0.2500000000000000    0.1272980000000000    0.1772280000000000 Co
   0.2500000000000000    0.8759969999999999    0.5319990000000000 B
   0.7500000000000001    0.1240030000000000    0.4680009999999999 B
   0.7500000000000001    0.3759970000000000    0.9680010000000000 B
   0.2500000000000000    0.6240030000000000    0.0319990000000000 B
