Ni6 Mo2
1.0
   4.2358029999999998    0.0000000000000000    0.0000000000000000
   0.0000000000000000    4.4621360000000001    0.0000000000000000
   0.0000000000000000    0.0000000000000000    5.0245069999999998
Ni Mo
6 2
direct
   0.5000000000000000    0.1594940000000000    0.7511470000000000 Ni
   0.5000000000000000    0.1594940000000000    0.2488530000000000 Ni
   0.0000000000000000    0.8405060000000000    0.7488530000000000 Ni
   0.0000000000000000    0.8405060000000000    0.2511470000000000 Ni
   0.0000000000000000    0.3377950000000000    0.4999999999999999 Ni
   0.5000000000000000    0.6622050000000000    0.0000000000000000 Ni
   0.5000000000000000    0.6570080000000000    0.4999999999999999 Mo
   0.0000000000000000    0.3429920000000000    0.0000000000000000 Mo
