Ce2 Hg6
1.0
   3.4352079999999998   -5.9499550000000001    0.0000000000000000
   3.4352079999999998    5.9499550000000001    0.0000000000000000
   0.0000000000000000    0.0000000000000000    5.0612360000000001
Ce Hg
2 6
direct
   0.3333330000000001    0.6666670000000001    0.2500000000000000 Ce
   0.6666670000000001    0.3333330000000001    0.7499999999999999 Ce
   0.8360660000000000    0.1639339999999999    0.2500000000000000 Hg
   0.8360660000000000    0.6721310000000000    0.2500000000000000 Hg
   0.3278690000000000    0.1639340000000000    0.2500000000000000 Hg
   0.1639339999999999    0.8360660000000000    0.7499999999999999 Hg
   0.1639340000000000    0.3278690000000000    0.7499999999999999 Hg
   0.6721310000000000    0.8360660000000000    0.7499999999999999 Hg
