Ho1 Tl3
1.0
   4.7715459999999998    0.0000000000000000    0.0000000000000000
   0.0000000000000000    4.7715459999999998    0.0000000000000000
   0.0000000000000000    0.0000000000000000    4.7715459999999998
Ho Tl
1 3
direct
   0.0000000000000000    0.0000000000000000    0.0000000000000000 Ho
   0.0000000000000000    0.5000000000000000    0.5000000000000000 Tl
   0.5000000000000000    0.5000000000000000    0.0000000000000000 Tl
   0.5000000000000000    0.0000000000000000    0.5000000000000000 Tl
