V2 F8
1.0
   5.0543513999999998   -0.0001117300000000   -2.3352156300000000
  -1.0918091999999999    4.9269995099999999   -2.3624326099999999
  -0.0234162600000000   -0.0647990900000000    6.5854274200000003
V F
2 8
direct
   0.9954557600000001    0.5037147600000002    0.9988515000000000 V
   0.5079152800000001    0.0095319900000000    0.9992713900000001 V
   0.9481451400000002    0.4404298600000001    0.2287618000000001 F
   0.7100410900000002    0.2176998700000000    0.7610994600000001 F
   0.0495310100000000    0.5470961800000000    0.7654024100000001 F
   0.2118536200000000    0.0472205400000000    0.7673204000000000 F
   0.2815158600000001    0.7829505800000001    0.2387907400000000 F
   0.4555302900000001    0.2843699000000000    0.2385320200000000 F
   0.7765581200000000    0.9404381200000000    0.2292726500000000 F
   0.5481008300000001    0.7191862000000000    0.7601656300000000 F
