La2 Co10
1.0
   5.0390949999999997   -0.0024940000000000    0.0000000000000000
  -2.4853779999999999    4.3835360000000003    0.0000000000000000
   0.0000000000000000    0.0000000000000000    7.9005859999999997
La Co
2 10
direct
   0.0000000000000000    0.0000000000000000    0.5000000000000000 La
   0.0000000000000000    0.0000000000000000    0.0000000000000000 La
   0.6291640000000001    0.3055040000000000    0.0000000000000000 Co
   0.0000000000000000    0.5000000000000000    0.7603280000000000 Co
   0.3055040000000000    0.6291639999999999    0.5000000000000000 Co
   0.6944960000000001    0.3708360000000000    0.5000000000000000 Co
   0.3708360000000001    0.6944960000000000    0.0000000000000000 Co
   0.5000000000000000   -0.0000000000000000    0.2603280000000000 Co
   0.5000000000000000   -0.0000000000000000    0.7396720000000000 Co
   0.0000000000000000    0.5000000000000000    0.2396720000000000 Co
   0.5000000000000000    0.4999999999999999    0.7499999999999999 Co
   0.5000000000000000    0.4999999999999999    0.2500000000000000 Co
