Dy1 Mg3
1.0
   0.0000000000000000    3.6576460000000002    3.6576460000000002
   3.6576460000000002    0.0000000000000000    3.6576460000000002
   3.6576460000000002    3.6576460000000002    0.0000000000000000
Dy Mg
1 3
direct
   0.0000000000000000    0.0000000000000000    0.0000000000000000 Dy
   0.7500000000000000    0.7500000000000001    0.7500000000000001 Mg
   0.5000000000000001    0.5000000000000000    0.4999999999999999 Mg
   0.2500000000000001    0.2500000000000000    0.2500000000000000 Mg
