Li6 Te2
1.0
   3.1150319999999998   -5.3953939999999996    0.0000000000000000
   3.1150319999999998    5.3953939999999996    0.0000000000000000
   0.0000000000000000    0.0000000000000000    4.5626749999999996
Li Te
6 2
direct
   0.1667890000000000    0.3335790000000000    0.2500000000000000 Li
   0.6664210000000000    0.8332110000000000    0.2500000000000000 Li
   0.1667890000000001    0.8332110000000001    0.2500000000000000 Li
   0.8332110000000000    0.6664210000000000    0.7500000000000001 Li
   0.3335790000000000    0.1667890000000000    0.7500000000000001 Li
   0.8332110000000001    0.1667890000000001    0.7500000000000001 Li
   0.3333330000000000    0.6666670000000000    0.7500000000000001 Te
   0.6666670000000000    0.3333330000000000    0.2500000000000000 Te
