Eu2 Zn26
1.0
   0.0000000000000000    6.1058969999999997    6.1058969999999997
   6.1058969999999997    0.0000000000000000    6.1058969999999997
   6.1058969999999997    6.1058969999999997    0.0000000000000000
Eu Zn
2 26
direct
   0.2500000000000001    0.2500000000000000    0.2500000000000000 Eu
   0.7500000000000000    0.7500000000000001    0.7500000000000001 Eu
   0.0561390000000000    0.3001269999999999    0.6998730000000000 Zn
   0.9438610000000002    0.6998730000000000    0.3001269999999999 Zn
   0.5561390000000002    0.8001270000000000    0.4438610000000001 Zn
   0.1998730000000000    0.4438610000000000    0.8001270000000001 Zn
   0.0561390000000000    0.9438610000000001    0.3001270000000000 Zn
   0.4438610000000001    0.5561390000000002    0.8001270000000001 Zn
   0.9438610000000001    0.3001269999999999    0.0561390000000000 Zn
   0.4438610000000001    0.8001270000000000    0.1998729999999999 Zn
   0.1998730000000000    0.8001270000000000    0.5561390000000002 Zn
   0.3001270000000000    0.0561390000000000    0.9438610000000000 Zn
   0.3001270000000000    0.6998730000000000    0.0561390000000000 Zn
   0.6998730000000001    0.9438610000000001    0.0561389999999999 Zn
   0.8001270000000000    0.5561390000000002    0.1998730000000000 Zn
   0.5561390000000002    0.1998730000000000    0.8001270000000000 Zn
   0.9438610000000002    0.0561389999999999    0.6998730000000000 Zn
   0.8001270000000001    0.1998729999999999    0.4438610000000000 Zn
   0.6998730000000000    0.3001269999999999    0.9438610000000001 Zn
   0.6998730000000000    0.0561390000000000    0.3001270000000000 Zn
   0.3001269999999998    0.9438610000000002    0.6998730000000001 Zn
   0.5561390000000002    0.4438610000000001    0.1998730000000000 Zn
   0.0561389999999999    0.6998730000000001    0.9438610000000002 Zn
   0.4438610000000001    0.1998730000000000    0.5561390000000002 Zn
   0.8001270000000000    0.4438610000000001    0.5561390000000000 Zn
   0.1998730000000000    0.5561390000000002    0.4438610000000001 Zn
   0.5000000000000001    0.5000000000000000    0.4999999999999999 Zn
   0.0000000000000000    0.0000000000000000    0.0000000000000000 Zn
