Ti3 Al5
1.0
   3.9215260000000001    0.0000000000000000    0.0000000000000000
   0.0000000000000000    4.0303899999999997    0.0000000000000000
   0.0000000000000000    0.0000000000000000    8.1164109999999994
Ti Al
3 5
direct
   0.0000000000000000    0.5000000000000000    0.2650980000000001 Ti
   0.0000000000000000    0.5000000000000000    0.7349020000000001 Ti
   0.5000000000000000    0.5000000000000000    0.0000000000000000 Ti
   0.0000000000000000    0.0000000000000000    0.0000000000000000 Al
   0.0000000000000000    0.0000000000000000    0.5000000000000000 Al
   0.5000000000000000    0.5000000000000000    0.5000000000000000 Al
   0.5000000000000000    0.0000000000000000    0.2423580000000000 Al
   0.5000000000000000    0.0000000000000000    0.7576420000000000 Al
