Cr32 N64
1.0
   3.7148704399999999   -8.3838573299999997    0.0000000000000000
  -7.6776418700000004   -8.4169020400000001  -12.7744191100000002
  11.3925123199999998    0.0330447100000000  -12.7744191100000002
Cr N
32 64
direct
   0.9301945600000000    0.8822925600000000    0.8822925600000001 Cr
   0.0698054400000000    0.1177074400000000    0.1177074400000000 Cr
   0.6947796899999999    0.1177074400000000    0.1177074400000000 Cr
   0.3052203100000001    0.8822925600000001    0.8822925600000001 Cr
   0.9296287700000003    0.7561729399999999    0.7561729400000001 Cr
   0.0703712300000000    0.2438270600000000    0.2438270600000000 Cr
   0.4419746500000001    0.2438270600000000    0.2438270600000000 Cr
   0.5580253500000001    0.7561729400000000    0.7561729400000001 Cr
   0.0856040000000002    0.5859094700000000    0.8703779599999999 Cr
   0.9143960000000001    0.1296220400000000    0.4140905300000001 Cr
   0.5418914300000001    0.4140905300000000    0.1296220400000000 Cr
   0.4581085700000002    0.8703779600000000    0.5859094699999999 Cr
   0.9143960000000003    0.4140905300000000    0.1296220400000000 Cr
   0.0856040000000003    0.8703779600000000    0.5859094699999999 Cr
   0.4581085700000000    0.5859094700000000    0.8703779599999999 Cr
   0.5418914300000000    0.1296220400000000    0.4140905300000001 Cr
   0.9775458400000003    0.6045366500000000    0.0675110300000000 Cr
   0.0224541600000000    0.9324889700000001    0.3954633500000000 Cr
   0.6495935100000001    0.3954633500000000    0.9324889700000001 Cr
   0.3504064900000001    0.0675110299999999    0.6045366500000001 Cr
   0.0224541600000000    0.3954633500000000    0.9324889700000000 Cr
   0.9775458400000003    0.0675110299999999    0.6045366500000001 Cr
   0.3504064900000001    0.6045366500000000    0.0675110300000000 Cr
   0.6495935099999999    0.9324889700000000    0.3954633500000001 Cr
   0.7525283700000001    0.7930336200000000    0.0769915000000000 Cr
   0.2474716300000001    0.9230085000000000    0.2069663800000000 Cr
   0.6225534800000003    0.2069663800000000    0.9230085000000000 Cr
   0.3774465200000001    0.0769915000000000    0.7930336200000001 Cr
   0.2474716300000002    0.2069663799999999    0.9230085000000001 Cr
   0.7525283700000001    0.0769915000000000    0.7930336200000001 Cr
   0.3774465200000002    0.7930336200000000    0.0769915000000000 Cr
   0.6225534800000001    0.9230085000000000    0.2069663800000000 Cr
   0.1098899900000001    0.8901100100000000    0.8901100100000001 N
   0.8901100100000001    0.1098899900000000    0.1098899900000001 N
   0.9570601600000003    0.8162696599999999    0.8162696600000001 N
   0.0429398400000000    0.1837303400000000    0.1837303400000000 N
   0.5895994800000001    0.1837303399999999    0.1837303400000001 N
   0.4104005199999999    0.8162696600000000    0.8162696600000001 N
   0.8304593000000003    0.8431186200000000    0.9793730500000001 N
   0.1695407000000000    0.0206269500000000    0.1568813800000000 N
   0.6529509700000001    0.1568813800000000    0.0206269500000000 N
   0.3470490300000000    0.9793730500000000    0.8431186200000000 N
   0.1695407000000000    0.1568813800000000    0.0206269500000000 N
   0.8304593000000003    0.9793730500000000    0.8431186200000000 N
   0.3470490300000000    0.8431186200000000    0.9793730500000000 N
   0.6529509700000000    0.0206269499999999    0.1568813800000001 N
   0.7336580799999999    0.7663419200000000    0.7663419200000000 N
   0.2663419200000000    0.2336580799999999    0.2336580800000000 N
   0.0085471700000000    0.6530388300000001    0.7893970600000001 N
   0.9914528300000002    0.2106029400000000    0.3469611700000000 N
   0.4509830600000000    0.3469611700000000    0.2106029400000000 N
   0.5490169400000001    0.7893970600000001    0.6530388300000001 N
   0.9914528300000002    0.3469611700000000    0.2106029400000000 N
   0.0085471700000000    0.7893970600000001    0.6530388300000001 N
   0.5490169400000003    0.6530388300000001    0.7893970600000001 N
   0.4509830600000000    0.2106029400000000    0.3469611700000000 N
   0.2735515400000001    0.5944049900000001    0.8584919300000001 N
   0.7264484600000000    0.1415080700000000    0.4055950100000000 N
   0.7264484600000000    0.4055950099999999    0.1415080700000001 N
   0.2735515400000001    0.8584919300000001    0.5944049900000001 N
   0.9830395900000003    0.6097347400000001    0.9647554800000001 N
   0.0169604100000000    0.0352445200000000    0.3902652600000000 N
   0.5575298100000000    0.3902652600000000    0.0352445200000000 N
   0.4424701899999999    0.9647554800000000    0.6097347400000002 N
   0.0169604100000000    0.3902652600000001    0.0352445200000000 N
   0.9830395900000005    0.9647554800000001    0.6097347400000001 N
   0.4424701900000002    0.6097347400000001    0.9647554800000001 N
   0.5575298100000000    0.0352445200000000    0.3902652600000001 N
   0.9136116900000000    0.5162890400000000    0.1248486200000000 N
   0.0863883100000001    0.8751513800000000    0.4837109600000000 N
   0.5547493499999999    0.4837109600000000    0.8751513800000000 N
   0.4452506500000000    0.1248486199999999    0.5162890400000001 N
   0.0863883100000002    0.4837109600000000    0.8751513800000000 N
   0.9136116900000002    0.1248486200000000    0.5162890400000000 N
   0.4452506500000000    0.5162890400000000    0.1248486200000000 N
   0.5547493500000001    0.8751513800000000    0.4837109600000000 N
   0.1641289400000001    0.5950549100000000    0.0766872200000000 N
   0.8358710600000000    0.9233127799999999    0.4049450900000001 N
   0.8358710600000000    0.4049450900000000    0.9233127800000001 N
   0.1641289400000001    0.0766872200000000    0.5950549100000000 N
   0.8660750500000000    0.6950232599999999    0.0983670300000001 N
   0.1339249500000001    0.9016329700000001    0.3049767400000001 N
   0.6594653400000001    0.3049767400000001    0.9016329700000001 N
   0.3405346600000001    0.0983670300000000    0.6950232600000000 N
   0.1339249500000000    0.3049767400000001    0.9016329700000001 N
   0.8660750500000000    0.0983670300000000    0.6950232600000000 N
   0.3405346600000001    0.6950232600000000    0.0983670300000000 N
   0.6594653400000001    0.9016329700000001    0.3049767400000001 N
   0.5690574600000000    0.7842518900000000    0.0776331900000001 N
   0.4309425399999999    0.9223668100000000    0.2157481100000001 N
   0.4309425399999999    0.2157481099999999    0.9223668100000001 N
   0.5690574600000000    0.0776331900000000    0.7842518900000000 N
   0.7390247000000004    0.8517242100000000    0.1482757900000000 N
   0.2609753000000002    0.8517242100000000    0.1482757900000000 N
   0.7390247000000000    0.1482757900000000    0.8517242100000000 N
   0.2609753000000000    0.1482757900000000    0.8517242100000000 N
