Mg10 Si12
1.0
   4.7369729999999999    0.0000000000000000    0.0000000000000000
   2.2238080000000000    5.2080409999999997    0.0000000000000000
   2.2045290000000000    0.0709340000000000   16.5039230000000003
Mg Si
10 12
direct
   0.0792880000000000    0.6156399999999999    0.0507500000000000 Mg
   0.9147129999999997    0.4274109999999999    0.3565030000000000 Mg
   0.4217500000000000    0.2258050000000000    0.6843950000000000 Mg
   0.3593470000000002    0.8838930000000000    0.3432760000000000 Mg
   0.9070120000000002    0.8606589999999998    0.2272340000000000 Mg
   0.2362820000000000    0.4330260000000001    0.8626010000000000 Mg
   0.2048130000000000    0.6830760000000000    0.5526020000000000 Mg
   0.9198709999999999    0.2656210000000000    0.5380080000000000 Mg
   0.7596629999999999    0.2137520000000000    0.0862020000000000 Mg
   0.5551100000000000    0.8373480000000000    0.8197179999999999 Mg
   0.3847460000000000    0.0101980000000000    0.9796730000000000 Si
   0.6576709999999999    0.5427449999999999    0.9595780000000000 Si
   0.8178550000000000    0.9282909999999999    0.4128250000000000 Si
   0.5645410000000000    0.9499080000000000    0.5504960000000000 Si
   0.8743900000000001    0.0907310000000000    0.9206390000000000 Si
   0.4189440000000001    0.8912880000000000    0.1310690000000000 Si
   0.5594920000000000    0.4936760000000001    0.2262120000000000 Si
   0.7256060000000000    0.6018920000000000    0.6691910000000000 Si
   0.1457560000000001    0.7319940000000000    0.7199179999999999 Si
   0.4104920000000001    0.3464360000000000    0.4312550000000001 Si
   0.1706910000000000    0.3066860000000000    0.2015890000000000 Si
   0.9084950000000002    0.1637150000000000    0.7727630000000000 Si
