In12 Se18
1.0
   4.0935400000000000   -7.0902190000000003    0.0000000000000000
   4.0935400000000000    7.0902190000000003    0.0000000000000000
   0.0000000000000000    0.0000000000000000   21.4825249999999990
In Se
12 18
direct
   0.3001110000000000    0.0413670000000000    0.4677000000000000 In
   0.0413670000000000    0.7412560000000000    0.6343670000000000 In
   0.3392869999999999    0.0233350000000000    0.1317580000000000 In
   0.3159520000000000    0.3392870000000000    0.9650910000000001 In
   0.6840480000000000    0.6607130000000000    0.4650910000000000 In
   0.6998889999999998    0.9586330000000000    0.9677000000000000 In
   0.7412559999999999    0.6998890000000001    0.8010330000000000 In
   0.2587440000000000    0.3001110000000000    0.3010330000000000 In
   0.9766650000000000    0.3159520000000000    0.7984240000000000 In
   0.9586329999999998    0.2587439999999998    0.1343670000000000 In
   0.6607129999999999    0.9766650000000001    0.6317580000000000 In
   0.0233349999999999    0.6840480000000001    0.2984240000000000 In
   0.9710550000000000    0.6505840000000002    0.5006960000000000 Se
   0.6107500000000000    0.3286040000000001    0.0040180000000000 Se
   0.6653850000000000    0.6579460000000000    0.3384940000000000 Se
   0.3892499999999998    0.6713960000000000    0.5040180000000000 Se
   0.6713960000000000    0.2821460000000000    0.6706850000000000 Se
   0.6505839999999999    0.6795300000000000    0.6673630000000000 Se
   0.3420540000000000    0.0074390000000000    0.0051610000000000 Se
   0.3286039999999999    0.7178540000000000    0.1706850000000000 Se
   0.0074389999999999    0.6653850000000001    0.1718270000000000 Se
   0.6579460000000000    0.9925610000000000    0.5051610000000000 Se
   0.9925609999999999    0.3346149999999999    0.6718270000000000 Se
   0.3346150000000001    0.3420540000000001    0.8384940000000000 Se
   0.2821460000000000    0.6107500000000000    0.8373510000000000 Se
   0.0289449999999999    0.3494160000000001    0.0006960000000000 Se
   0.6795300000000000    0.0289450000000000    0.8340300000000000 Se
   0.3204699999999999    0.9710550000000000    0.3340300000000000 Se
   0.7178539999999999    0.3892499999999999    0.3373510000000000 Se
   0.3494160000000000    0.3204700000000000    0.1673630000000000 Se
