Mg2 Ga4
1.0
   1.5315449999999999   -2.6527140000000000    0.0000000000000000
   1.5315449999999999    2.6527140000000000    0.0000000000000000
   0.0000000000000000    0.0000000000000000   14.7554099999999995
Mg Ga
2 4
direct
   0.0000000000000000    0.0000000000000000    0.1665000000000000 Mg
   0.0000000000000000    0.0000000000000000    0.8334999999999999 Mg
   0.0000000000000000    0.0000000000000000    0.4999999999999999 Ga
   0.6666670000000000    0.3333330000000000    0.3296379999999999 Ga
   0.6666670000000000    0.3333330000000000    0.0000000000000000 Ga
   0.6666670000000000    0.3333330000000000    0.6703620000000000 Ga
