Bi4 F20
1.0
  10.2819109999999991    0.0000000000000000    0.0000000000000000
   0.0000000000000000    5.6407600000000002    0.0000000000000000
   0.0000000000000000    3.0559799999999999    7.7382400000000002
Bi F
4 20
direct
   0.7519230000000000    0.1185809999999999    0.5967770000000001 Bi
   0.2519230000000000    0.8814190000000000    0.9032230000000000 Bi
   0.2480770000000000    0.8814190000000000    0.4032230000000000 Bi
   0.7480770000000000    0.1185810000000000    0.0967770000000000 Bi
   0.8748619999999999    0.4091620000000000    0.5673450000000000 F
   0.3748619999999999    0.5908379999999999    0.9326550000000001 F
   0.1251380000000000    0.5908380000000000    0.4326550000000000 F
   0.6251379999999999    0.4091620000000001    0.0673450000000000 F
   0.6101299999999998    0.3674600000000000    0.4831310000000000 F
   0.1101300000000000    0.6325400000000000    0.0168690000000000 F
   0.3898699999999999    0.6325400000000000    0.5168690000000000 F
   0.8898700000000000    0.3674599999999998    0.9831310000000001 F
   0.3964250000000000    0.1281479999999999    0.7923249999999999 F
   0.8964249999999999    0.8718519999999998    0.7076750000000001 F
   0.6035750000000000    0.8718520000000000    0.2076750000000000 F
   0.1035750000000000    0.1281480000000000    0.2923250000000000 F
   0.1305790000000000    0.1746020000000000    0.8720950000000001 F
   0.6305790000000000    0.8253980000000000    0.6279050000000000 F
   0.8694209999999999    0.8253979999999999    0.1279050000000000 F
   0.3694210000000000    0.1746019999999999    0.3720950000000000 F
   0.6858109999999999    0.1166029999999998    0.8464720000000000 F
   0.1858110000000000    0.8833969999999999    0.6535280000000001 F
   0.3141889999999999    0.8833970000000000    0.1535280000000000 F
   0.8141890000000001    0.1166030000000000    0.3464720000000000 F
