Mn8 O12
1.0
   1.5486660000000001   -5.1114780000000000    0.0000000000000000
   1.5486660000000001    5.1114780000000000    0.0000000000000000
   0.0000000000000000    0.0000000000000000   15.1143590000000003
Mn O
8 12
direct
   0.6369100000000000    0.3630900000000000    0.0473120000000000 Mn
   0.3630900000000000    0.6369099999999999    0.9526880000000000 Mn
   0.6369100000000000    0.3630900000000000    0.4526880000000000 Mn
   0.3630900000000000    0.6369099999999999    0.5473120000000000 Mn
   0.0919490000000000    0.9080509999999999    0.6394870000000000 Mn
   0.9080510000000001    0.0919489999999999    0.3605130000000000 Mn
   0.9080510000000001    0.0919489999999999    0.1394870000000000 Mn
   0.0919490000000000    0.9080509999999999    0.8605129999999999 Mn
   0.0000000000000000    0.0000000000000000    0.5000000000000000 O
   0.0000000000000000    0.0000000000000000    0.0000000000000000 O
   0.4745090000000000    0.5254909999999999    0.8505610000000000 O
   0.5254910000000000    0.4745089999999999    0.1494390000000000 O
   0.5254910000000000    0.4745089999999999    0.3505610000000000 O
   0.4745090000000000    0.5254909999999999    0.6494390000000000 O
   0.7207190000000000    0.2792809999999999    0.9247189999999998 O
   0.2792810000000000    0.7207189999999999    0.0752810000000000 O
   0.2792810000000000    0.7207189999999999    0.4247190000000000 O
   0.7207190000000000    0.2792809999999999    0.5752810000000000 O
   0.1674239999999999    0.8325759999999999    0.7500000000000000 O
   0.8325760000000000    0.1674239999999999    0.2500000000000000 O
