Lu2 Br6
1.0
   5.2351549999999998   -9.0675539999999994    0.0000000000000000
   5.2351549999999998    9.0675539999999994    0.0000000000000000
   0.0000000000000000    0.0000000000000000    3.6491150000000001
Lu Br
2 6
direct
   0.3333329999999999    0.6666670000000001    0.7500000000000000 Lu
   0.6666669999999999    0.3333330000000000    0.2500000000000000 Lu
   0.2182699999999999    0.4365400000000001    0.2500000000000000 Br
   0.5634599999999997    0.7817300000000001    0.2500000000000000 Br
   0.2182699999999999    0.7817300000000001    0.2500000000000000 Br
   0.7817299999999999    0.5634600000000000    0.7500000000000000 Br
   0.4365399999999999    0.2182700000000000    0.7500000000000000 Br
   0.7817299999999999    0.2182700000000000    0.7500000000000000 Br
