Ga10 Rh6
1.0
   5.0302170000000004    0.0000000000000000    0.0000000000000000
  -1.3311649999999999    6.6011709999999999    0.0000000000000000
  -2.0327020000000000   -1.9567770000000000    7.4776879999999997
Ga Rh
10 6
direct
   0.7769629999999998    0.5469950000000000    0.5395999999999999 Ga
   0.2230370000000000    0.4530050000000000    0.4604000000000000 Ga
   0.9135710000000001    0.1780060000000000    0.0455690000000000 Ga
   0.0864289999999999    0.8219940000000000    0.9544310000000000 Ga
   0.5513470000000000    0.1428560000000000    0.2741360000000000 Ga
   0.4486530000000000    0.8571440000000001    0.7258640000000000 Ga
   0.6806179999999998    0.4735990000000000    0.8721219999999998 Ga
   0.3193820000000000    0.5264010000000000    0.1278780000000000 Ga
   0.0411470000000000    0.9062340000000001    0.3464459999999999 Ga
   0.9588530000000000    0.0937660000000000    0.6535539999999999 Ga
   0.8478650000000000    0.5137750000000000    0.2243840000000000 Rh
   0.1521349999999999    0.4862250000000000    0.7756160000000000 Rh
   0.6351950000000000    0.8269840000000001    0.0497830000000000 Rh
   0.3648049999999999    0.1730160000000000    0.9502169999999999 Rh
   0.5443470000000000    0.8048060000000000    0.4217890000000000 Rh
   0.4556529999999999    0.1951940000000000    0.5782110000000000 Rh
