Yb8 Si4
1.0
   4.7951730000000001    0.0000000000000000    0.0000000000000000
   0.0000000000000000    7.4633859999999999    0.0000000000000000
   0.0000000000000000    0.0000000000000000    8.9693889999999996
Yb Si
8 4
direct
   0.2500000000000000    0.6549350000000000    0.5747390000000000 Yb
   0.7500000000000000    0.3450650000000001    0.4252610000000000 Yb
   0.7500000000000000    0.8450650000000001    0.0747390000000000 Yb
   0.2500000000000000    0.1549350000000000    0.9252610000000000 Yb
   0.2500000000000000    0.5200890000000000    0.1798540000000000 Yb
   0.7500000000000000    0.4799110000000000    0.8201460000000000 Yb
   0.7500000000000000    0.9799110000000000    0.6798540000000001 Yb
   0.2500000000000000    0.0200890000000000    0.3201460000000000 Yb
   0.2500000000000000    0.7520500000000001    0.8945050000000000 Si
   0.7500000000000000    0.2479500000000000    0.1054950000000000 Si
   0.7500000000000000    0.7479500000000000    0.3945050000000000 Si
   0.2500000000000000    0.2520500000000000    0.6054950000000000 Si
