Mg1 Sn3
1.0
  -1.6886829999999999    2.7281909999999998    5.6446249999999996
   1.6886829999999999   -2.7281909999999998    5.6446249999999996
   1.6886829999999999    2.7281909999999998   -5.6446249999999996
Mg Sn
1 3
direct
   0.6686740000000001    0.0000000000000001    0.6686740000000001 Mg
   0.1695070000000000    0.4999999999999999    0.6695070000000000 Sn
   0.2518240000000000    0.2542470000000000    0.9975770000000000 Sn
   0.7433290000000000    0.7457529999999999    0.9975770000000002 Sn
