Y6 Fe23
1.0
   0.0000000000000000    6.0219860000000001    6.0219860000000001
   6.0219860000000001    0.0000000000000000    6.0219860000000001
   6.0219860000000001    6.0219860000000001    0.0000000000000000
Y Fe
6 23
direct
   0.2091610000000001    0.2091610000000001    0.7908389999999998 Y
   0.2091610000000001    0.7908390000000001    0.7908389999999998 Y
   0.7908390000000000    0.2091610000000001    0.2091609999999999 Y
   0.2091610000000001    0.7908390000000000    0.2091609999999999 Y
   0.7908390000000001    0.2091610000000001    0.7908389999999998 Y
   0.7908390000000001    0.7908390000000001    0.2091609999999998 Y
   0.5000000000000000    0.5000000000000000    0.4999999999999998 Fe
   0.5000000000000000    0.5000000000000000   -0.0000000000000001 Fe
   0.0000000000000001    0.5000000000000000    0.4999999999999999 Fe
   0.4999999999999999    0.0000000000000000   -0.0000000000000001 Fe
   0.0000000000000000    0.0000000000000000    0.4999999999999999 Fe
   0.0000000000000000    0.4999999999999999   -0.0000000000000001 Fe
   0.5000000000000000    0.0000000000000001    0.4999999999999999 Fe
   0.6219270000000001    0.1342200000000001    0.6219270000000000 Fe
   0.3780730000000000    0.3780730000000000    0.8657799999999999 Fe
   0.8657800000000000    0.3780730000000000    0.3780729999999999 Fe
   0.3780730000000000    0.3780730000000000    0.3780729999999999 Fe
   0.1342200000000001    0.6219270000000001    0.6219270000000000 Fe
   0.6219270000000001    0.6219270000000001    0.6219269999999999 Fe
   0.6219270000000001    0.6219270000000001    0.1342199999999999 Fe
   0.3780730000000000    0.8657800000000000    0.3780729999999999 Fe
   0.8239660000000001    0.5281010000000002    0.8239659999999999 Fe
   0.1760340000000001    0.1760340000000001    0.4718990000000000 Fe
   0.4718990000000000    0.1760340000000001    0.1760339999999999 Fe
   0.1760340000000000    0.1760340000000000    0.1760340000000000 Fe
   0.5281010000000002    0.8239660000000001    0.8239659999999999 Fe
   0.8239660000000001    0.8239660000000001    0.8239659999999999 Fe
   0.8239660000000001    0.8239660000000000    0.5281009999999998 Fe
   0.1760340000000001    0.4718990000000000    0.1760339999999999 Fe
