Ba8 Pt2
1.0
   0.0000000000000000    6.7857539999999998    6.7857539999999998
   6.7857539999999998    0.0000000000000000    6.7857539999999998
   6.7857539999999998    6.7857539999999998    0.0000000000000000
Ba Pt
8 2
direct
   0.3764180000000000    0.3764180000000000    0.3764180000000000 Ba
   0.3764180000000000    0.3764180000000000    0.8707470000000000 Ba
   0.3764180000000000    0.8707470000000000    0.3764180000000000 Ba
   0.8735820000000000    0.8735820000000000    0.3792530000000000 Ba
   0.8735820000000000    0.8735820000000000    0.8735820000000000 Ba
   0.8707470000000000    0.3764180000000000    0.3764180000000000 Ba
   0.8735820000000000    0.3792530000000000    0.8735820000000000 Ba
   0.3792530000000000    0.8735820000000000    0.8735820000000000 Ba
   0.0000000000000000    0.0000000000000000    0.0000000000000000 Pt
   0.2500000000000000    0.2500000000000000    0.2500000000000000 Pt
