Ce3 Cd33
1.0
   9.5098090000000006    0.0000000000000000    0.0000000000000000
   0.0000000000000000    9.5098090000000006    0.0000000000000000
   0.0000000000000000    0.0000000000000000    9.5098090000000006
Ce Cd
3 33
direct
   0.5000000000000000    0.0000000000000000    0.0000000000000000 Ce
   0.0000000000000000    0.0000000000000000    0.5000000000000000 Ce
   0.0000000000000000    0.5000000000000000    0.0000000000000000 Ce
   0.0000000000000000    0.3448660000000000    0.3448660000000000 Cd
   0.2666120000000000    0.2666120000000000    0.5000000000000000 Cd
   0.1554360000000000    0.1554360000000000    0.8445640000000000 Cd
   0.8445640000000000    0.1554360000000000    0.8445640000000000 Cd
   0.5000000000000000    0.2666120000000000    0.2666120000000000 Cd
   0.6551340000000000    0.6551340000000000    0.0000000000000000 Cd
   0.3448660000000000    0.3448660000000000    0.0000000000000000 Cd
   0.3448660000000000    0.6551340000000000    0.0000000000000000 Cd
   0.0000000000000000    0.3448660000000000    0.6551340000000000 Cd
   0.8445640000000000    0.8445640000000000    0.8445640000000000 Cd
   0.6551340000000000    0.3448660000000000    0.0000000000000000 Cd
   0.6551340000000000    0.0000000000000000    0.6551340000000000 Cd
   0.6551340000000000    0.0000000000000000    0.3448660000000000 Cd
   0.7333880000000000    0.2666120000000000    0.5000000000000000 Cd
   0.2666120000000000    0.5000000000000000    0.7333880000000000 Cd
   0.0000000000000000    0.6551340000000000    0.6551340000000000 Cd
   0.3448660000000000    0.0000000000000000    0.3448660000000000 Cd
   0.1554360000000000    0.8445640000000000    0.1554360000000000 Cd
   0.5000000000000000    0.7333880000000000    0.7333880000000000 Cd
   0.5000000000000000    0.5000000000000000    0.5000000000000000 Cd
   0.8445640000000000    0.8445640000000000    0.1554360000000000 Cd
   0.5000000000000000    0.7333880000000000    0.2666120000000000 Cd
   0.0000000000000000    0.6551340000000000    0.3448660000000000 Cd
   0.7333880000000000    0.5000000000000000    0.7333880000000000 Cd
   0.2666120000000000    0.5000000000000000    0.2666120000000000 Cd
   0.5000000000000000    0.2666120000000000    0.7333880000000000 Cd
   0.8445640000000000    0.1554360000000000    0.1554360000000000 Cd
   0.1554360000000000    0.8445640000000000    0.8445640000000000 Cd
   0.2666120000000000    0.7333880000000000    0.5000000000000000 Cd
   0.3448660000000000    0.0000000000000000    0.6551340000000000 Cd
   0.7333880000000000    0.7333880000000000    0.5000000000000000 Cd
   0.7333880000000000    0.5000000000000000    0.2666120000000000 Cd
   0.1554360000000000    0.1554360000000000    0.1554360000000000 Cd
