Ca6 Au8
1.0
   4.4892979999999998   -6.9680080000000002    0.0000000000000000
   4.4892979999999998    6.9680080000000002    0.0000000000000000
  -6.3260079999999999    0.0000000000000000    5.3561690000000004
Ca Au
6 8
direct
   0.3999469999999999    0.0259070000000000    0.2806860000000000 Ca
   0.0259070000000000    0.2806860000000000    0.3999470000000001 Ca
   0.2806860000000001    0.3999469999999999    0.0259070000000000 Ca
   0.6000530000000001    0.9740929999999999    0.7193140000000000 Ca
   0.9740930000000001    0.7193139999999999    0.6000529999999999 Ca
   0.7193140000000000    0.6000529999999997    0.9740930000000000 Ca
   0.0561410000000000    0.5550749999999999    0.2220560000000000 Au
   0.2220559999999999    0.0561409999999999    0.5550750000000000 Au
   0.5550750000000000    0.2220559999999999    0.0561410000000000 Au
   0.7779440000000001    0.9438589999999999    0.4449250000000001 Au
   0.9438589999999999    0.4449249999999998    0.7779439999999999 Au
   0.4449250000000001    0.7779439999999999    0.9438590000000001 Au
   0.5000000000000000    0.4999999999999998    0.5000000000000000 Au
   0.0000000000000000    0.0000000000000000    0.0000000000000000 Au
