W4 O12
1.0
   7.7043559999999998    0.0000000000000000    0.0000000000000000
   0.0000000000000000    7.7043559999999998    0.0000000000000000
   0.0000000000000000    0.0000000000000000    3.8985520000000000
W O
4 12
direct
   0.7401690000000000    0.2401690000000000    0.0358820000000000 W
   0.2598310000000000    0.7598310000000000    0.0358820000000000 W
   0.7598310000000000    0.7401690000000000    0.9641180000000001 W
   0.2401690000000000    0.2598310000000000    0.9641180000000001 W
   0.7445590000000000    0.2445590000000000    0.5077400000000000 O
   0.2445590000000000    0.2554410000000000    0.4922600000000000 O
   0.2554410000000000    0.7554410000000001    0.5077400000000000 O
   0.7554410000000001    0.7445590000000000    0.4922600000000000 O
   0.2501660000000000    0.0042000000000000    0.0011340000000000 O
   0.2498340000000000    0.5042000000000000    0.9988660000000001 O
   0.9958000000000000    0.2501660000000000    0.9988660000000001 O
   0.7498340000000000    0.9958000000000000    0.0011340000000000 O
   0.0042000000000000    0.7498340000000000    0.9988660000000001 O
   0.4958000000000000    0.2498340000000000    0.0011340000000000 O
   0.5042000000000000    0.7501660000000001    0.0011340000000000 O
   0.7501660000000001    0.4958000000000000    0.9988660000000001 O
