Y20 Ge16
1.0
   7.6803650000000001    0.0000000000000000    0.0000000000000000
   0.0000000000000000    7.7472729999999999    0.0000000000000000
   0.0000000000000000    0.0000000000000000   14.7683049999999998
Y Ge
20 16
direct
   0.7850740000000000    0.5016080000000001    0.7500000000000000 Y
   0.2850740000000000    0.9983919999999999    0.7500000000000000 Y
   0.7149260000000001    0.0016080000000000    0.2500000000000000 Y
   0.2149260000000000    0.4983919999999999    0.2500000000000000 Y
   0.3791220000000000    0.1606350000000000    0.1169910000000000 Y
   0.8791220000000000    0.3393650000000000    0.3830090000000000 Y
   0.1208780000000000    0.6606350000000000    0.8830090000000000 Y
   0.6208780000000002    0.8393650000000000    0.6169910000000000 Y
   0.6208780000000002    0.8393650000000000    0.8830090000000000 Y
   0.1208780000000000    0.6606350000000000    0.6169910000000000 Y
   0.8791220000000000    0.3393650000000000    0.1169910000000000 Y
   0.3791220000000000    0.1606350000000000    0.3830090000000000 Y
   0.0294310000000000    0.8240560000000000    0.1014960000000000 Y
   0.5294310000000000    0.6759440000000000    0.3985040000000000 Y
   0.4705690000000000    0.3240560000000000    0.8985040000000000 Y
   0.9705690000000001    0.1759440000000000    0.6014960000000000 Y
   0.9705690000000001    0.1759440000000000    0.8985040000000000 Y
   0.4705690000000000    0.3240560000000000    0.6014960000000000 Y
   0.5294310000000000    0.6759440000000000    0.1014960000000000 Y
   0.0294310000000000    0.8240560000000000    0.3985040000000000 Y
   0.3352390000000000    0.8625410000000000    0.2500000000000000 Ge
   0.8352390000000000    0.6374589999999999    0.2500000000000000 Ge
   0.1647610000000000    0.3625409999999999    0.7500000000000000 Ge
   0.6647610000000000    0.1374590000000000    0.7500000000000000 Ge
   0.0844410000000000    0.1171570000000000    0.2500000000000000 Ge
   0.5844410000000000    0.3828430000000000    0.2500000000000000 Ge
   0.4155590000000000    0.6171570000000000    0.7500000000000000 Ge
   0.9155590000000000    0.8828430000000000    0.7500000000000000 Ge
   0.2206140000000000    0.4683540000000000    0.0442810000000000 Ge
   0.7206140000000000    0.0316460000000000    0.4557189999999999 Ge
   0.2793860000000000    0.9683540000000000    0.9557190000000000 Ge
   0.7793860000000001    0.5316460000000000    0.5442810000000000 Ge
   0.7793860000000001    0.5316460000000000    0.9557190000000000 Ge
   0.2793860000000000    0.9683540000000000    0.5442810000000000 Ge
   0.7206140000000000    0.0316460000000000    0.0442810000000000 Ge
   0.2206140000000000    0.4683540000000000    0.4557189999999999 Ge
