Ca10 Sb6
1.0
   4.5435239999999997   -7.8696140000000003    0.0000000000000000
   4.5435239999999997    7.8696140000000003    0.0000000000000000
   0.0000000000000000    0.0000000000000000    6.9902179999999996
Ca Sb
10 6
direct
   0.3333330000000000    0.6666670000000000    0.0000000000000000 Ca
   0.6666670000000000    0.3333330000000000    0.5000000000000000 Ca
   0.6666670000000000    0.3333330000000000    0.0000000000000000 Ca
   0.3333330000000000    0.6666670000000000    0.5000000000000000 Ca
   0.2519860000000000   -0.0000000000000000    0.2500000000000000 Ca
   0.2519860000000000    0.2519860000000000    0.7500000000000000 Ca
   0.0000000000000000    0.7480140000000000    0.7500000000000000 Ca
  -0.0000000000000000    0.2519860000000000    0.2500000000000000 Ca
   0.7480140000000000    0.7480140000000000    0.2500000000000000 Ca
   0.7480140000000000    0.0000000000000000    0.7500000000000000 Ca
   0.6109120000000000   -0.0000000000000000    0.2500000000000000 Sb
   0.6109120000000000    0.6109120000000000    0.7500000000000000 Sb
  -0.0000000000000000    0.3890880000000000    0.7500000000000000 Sb
  -0.0000000000000000    0.6109120000000000    0.2500000000000000 Sb
   0.3890880000000000    0.3890880000000000    0.2500000000000000 Sb
   0.3890880000000000   -0.0000000000000000    0.7500000000000000 Sb
