Fe4 N1
1.0
   8.4902610000000003   -1.2876780000000001    0.0000000000000000
   8.4902610000000003    1.2876780000000001    0.0000000000000000
   8.2949649999999995    0.0000000000000000    2.2217570000000002
Fe N
4 1
direct
   0.8714419999999998    0.8714420000000000    0.8714419999999999 Fe
   0.1285580000000000    0.1285580000000000    0.1285580000000000 Fe
   0.3814339999999999    0.3814339999999999    0.3814340000000000 Fe
   0.6185659999999999    0.6185660000000001    0.6185659999999999 Fe
   0.0000000000000000    0.0000000000000000    0.0000000000000000 N
