Zn50 S50
1.0
  13.0200970500000004    0.5218793700000000    0.1841236900000000
   0.5407791500000000   13.4741716900000004    0.8279482000000000
   0.1943262200000000    0.7877268300000000   14.4778981200000008
Zn S
50 50
direct
   0.5580328699999999    0.9509722200000000    0.3760419300000001 Zn
   0.1474377600000000    0.6097151600000001    0.6251819999999999 Zn
   0.3854024400000000    0.6672961800000002    0.4702161300000001 Zn
   0.9239263700000000    0.3216816400000000    0.2781583900000000 Zn
   0.3553628500000000    0.5586683000000001    0.9330873500000001 Zn
   0.2444899500000000    0.0026413100000000    0.6876481800000001 Zn
   0.7393798399999999    0.0957139200000000    0.2376415500000000 Zn
   0.6537299800000000    0.5325208400000000    0.4484361200000000 Zn
   0.0816551300000000    0.4132455100000000    0.8020799600000001 Zn
   0.3922755400000000    0.2259671600000000    0.5284519500000000 Zn
   0.0274915800000000    0.8895908700000000    0.2351788600000000 Zn
   0.1364908600000000    0.0042523600000000    0.2769906300000001 Zn
   0.3239549600000000    0.8415160100000000    0.0132582500000000 Zn
   0.8659402299999998   -0.0004578400000000    0.0191007400000000 Zn
   0.0329006200000000    0.2624073400000000    0.0416314500000000 Zn
   0.1889709399999999    0.7190088999999997    0.0106383900000000 Zn
   0.0744826500000000    0.1584391400000000    0.7526958000000000 Zn
   0.6211736499999999    0.3584976200000001    0.1934514300000000 Zn
   0.8778039900000000    0.2987344399999999    0.8056443600000001 Zn
   0.5127110299999998    0.0024449900000000    0.6020551500000000 Zn
   0.6422838699999999    0.7721132000000001    0.4873644400000001 Zn
   0.3971873200000000    0.4508748399999999    0.3458167300000000 Zn
   0.6110884900000000    0.6062288399999999    0.9262518200000001 Zn
   0.3736602199999999    0.9872752900000000    0.8911080200000000 Zn
   0.6481954499999999    0.0494568300000000    0.7751639000000000 Zn
   0.6518648600000000    0.3010314399999999    0.4099862600000000 Zn
   0.7887198299999999    0.5892660099999999    0.1680720700000000 Zn
   0.9760327699999999    0.0505627000000000    0.8716416300000001 Zn
   0.8621711899999999    0.6277780800000000    0.5708170000000001 Zn
   0.8871225499999998    0.1093127800000000    0.7182174100000001 Zn
   0.2321868699999999    0.0347189500000000    0.4383426600000001 Zn
   0.5714184500000000    0.7587317900000000    0.0556522600000000 Zn
   0.9992846999999999    0.8292295199999999    0.7205329900000002 Zn
   0.1976917300000000    0.2369805800000000    0.2851282900000000 Zn
   0.4434980999999999    0.7418692899999999    0.2528516500000000 Zn
   0.2093335300000000    0.5383430299999999    0.1108306300000000 Zn
   0.4957083600000000    0.4264391100000000    0.0836391400000000 Zn
   0.1072696600000000    0.7949129600000000    0.4703527800000000 Zn
   0.8376334100000000    0.9122195999999999    0.8828481000000001 Zn
   0.6657057499999999    0.2589612399999999    0.6239613600000000 Zn
   0.1592594400000000    0.4018849900000000    0.5306063400000000 Zn
   0.1944794300000000    0.1182178400000000    0.9372654800000001 Zn
   0.1921270400000000    0.8942098300000000    0.9000346800000001 Zn
   0.9422995999999998    0.5928151499999998    0.3626683200000000 Zn
   0.1753615200000000    0.6415382600000000    0.2375378000000000 Zn
   0.7037493900000000    0.8792123599999999    0.1973183500000000 Zn
   0.8484310799999999    0.4189087100000000    0.9520371300000001 Zn
   0.3382112500000000    0.2530031400000001    0.9211302400000001 Zn
   0.9136723700000000    0.3583782300000001    0.5214439800000000 Zn
   0.8108890699999999    0.6966687599999999    0.9227210600000000 Zn
   0.1847234200000000    0.5695507800000000    0.9431820400000002 S
   0.5689874000000000    0.1888666200000000    0.5220205800000000 S
   0.2419008599999999    0.1392823600000000    0.7698437200000000 S
  -0.0021496300000000    0.7200743800000000    0.6063185000000001 S
   0.7285263300000000    0.6047182799999999    0.6825591100000000 S
   0.2865310799999999    0.0784044400000000    0.2892948300000001 S
   0.4833042599999999    0.0313376200000000    0.7570690100000002 S
   0.6443203600000000    0.9397202900000000    0.5121255500000000 S
   0.9557353799999999    0.7726098699999999    0.8813325600000002 S
   0.7277925899999999    0.1956370400000000    0.7647405100000001 S
   0.3160759100000000    0.3892647000000001    0.1119520000000000 S
   0.9730745599999998    0.2400772400000000    0.4261301300000001 S
   0.1711609200000000    0.8641974699999999    0.7502535200000000 S
   0.5934492000000000    0.6690902299999999    0.6250742700000002 S
   0.5793187700000001    0.4512777300000000    0.3312743600000000 S
   0.0844134200000000   -0.0000789900000000    0.9940487200000001 S
   0.9196658999999999    0.4989127800000000    0.2415651400000000 S
   0.6026400600000000    0.4929302300000000    0.8216803200000001 S
   0.1516332800000000    0.3014543300000000    0.9270996000000001 S
   0.7381783699999998    0.3787827400000001    0.5246947700000000 S
   0.1295755800000000    0.2594909100000000    0.4412994000000001 S
   0.7706391900000000    0.5501306000000000    0.0165929000000000 S
   0.5190916799999999    0.5623479799999999    0.5570361500000000 S
   0.9633384699999997    0.2616158900000000    0.6657256100000001 S
   0.1921811999999999    0.4501539700000001    0.6829629100000001 S
   0.9099366700000000    0.4671895900000000    0.8059962899999999 S
   0.3574725600000000    0.1041826100000000    0.0042933100000000 S
   0.5927616900000000    0.0151241300000000    0.2294755800000000 S
   0.0493889800000000    0.7258521200000001    0.3268837900000001 S
   0.8524514800000000    0.9671971100000000    0.1778568000000000 S
   0.7697521399999999    0.6588796199999999    0.4294084100000000 S
   0.6701637900000000    0.7186197000000001    0.1910643000000000 S
   0.3397442700000000    0.0589695600000000    0.5557441500000000 S
   0.4779753099999999    0.4297391100000000    0.8955289600000002 S
   0.3390559000000000    0.6208234600000000    0.3206978300000000 S
   0.0791168300000000    0.9669162999999998    0.4503455200000001 S
   0.4726228099999999    0.6045967999999998    0.0337478400000000 S
   0.2512732599999999    0.7255547100000000    0.5546754200000001 S
  -0.0032757700000000    0.5028562500000000    0.5032628200000000 S
   0.3372636899999999    0.3867377000000000    0.4935764400000001 S
   0.6464334300000000    0.7776956999999999    0.9092290300000001 S
   0.7533211199999998    0.9115683799999998    0.7410860000000001 S
   0.7531207899999998    0.2518250500000000    0.2759052900000000 S
   0.4397792400000000    0.8535081999999999    0.1222573500000000 S
   0.4327390400000000    0.3321720300000000    0.8086014700000002 S
   0.3405534900000000    0.3345498900000000    0.2511288000000000 S
   0.8750896400000000    0.2462791800000000    0.9720123900000001 S
   0.8749115099999999    0.9623375399999999    0.6528169100000000 S
   0.4904213400000000    0.7960786800000000    0.3916451200000001 S
   0.0487317500000000    0.2332866600000000    0.1956858900000000 S
