Tl3 Ge1
1.0
  -2.6721729999999999    2.6721729999999999    3.9547059999999998
   2.6721729999999999   -2.6721729999999999    3.9547059999999998
   2.6721729999999999    2.6721729999999999   -3.9547059999999998
Tl Ge
3 1
direct
   0.7500000000000000    0.2500000000000001    0.5000000000000000 Tl
   0.2500000000000001    0.7500000000000000    0.5000000000000000 Tl
   0.5000000000000000    0.5000000000000000    0.0000000000000000 Tl
   0.0000000000000000    0.0000000000000000    0.0000000000000000 Ge
