Ce4 Se8
1.0
  -4.7464870000000001    4.7464870000000001    9.1820059999999994
   4.7464870000000001   -4.7464870000000001    9.1820059999999994
   4.7464870000000001    4.7464870000000001   -9.1820059999999994
Ce Se
4 8
direct
   0.8749999999999999    0.2636120000000001    0.8886119999999998 Ce
   0.3750000000000002    0.9863880000000002    0.1113880000000000 Ce
   0.0136120000000000    0.6250000000000001    0.8886120000000000 Ce
   0.7363880000000000    0.1250000000000001    0.1113880000000000 Ce
   0.6404420000000000    0.1404420000000001    0.5000000000000000 Se
   0.1095580000000000    0.1095580000000000    0.0000000000000000 Se
   0.8595580000000000    0.3595580000000000    0.5000000000000000 Se
   0.8904420000000000    0.8904420000000000    0.0000000000000000 Se
   0.0410170000000000    0.5410170000000000    0.0820340000000000 Se
   0.4589829999999999    0.9589829999999999    0.9179659999999999 Se
   0.7089830000000000    0.2910170000000001    0.0000000000000000 Se
   0.2910170000000000    0.7089830000000000   -0.0000000000000000 Se
