Cu4 S2
1.0
   2.1244710000000002   -3.6796920000000002    0.0000000000000000
   2.1244710000000002    3.6796920000000002    0.0000000000000000
   0.0000000000000000    0.0000000000000000    5.3650589999999996
Cu S
4 2
direct
   0.0000000000000000    0.0000000000000000    0.2500000000000000 Cu
   0.6666670000000000    0.3333330000000000    0.2500000000000000 Cu
   0.3333330000000000    0.6666670000000000    0.7500000000000000 Cu
   0.0000000000000000    0.0000000000000000    0.7500000000000000 Cu
   0.3333330000000000    0.6666670000000000    0.2500000000000000 S
   0.6666670000000000    0.3333330000000000    0.7500000000000000 S
