Mo4 O12
1.0
   5.4752310000000000    0.0000000000000000    0.0000000000000000
   0.0000000000000000    5.6555109999999997    0.0000000000000000
   0.0000000000000000    0.0754070000000000    7.2868490000000001
Mo O
4 12
direct
   0.7546960000000000    0.3027650000000000    0.5015240000000000 Mo
   0.2453040000000000    0.8027650000000000    0.5015240000000000 Mo
   0.2514410000000000    0.9588850000000001    0.0012670000000000 Mo
   0.7485590000000000    0.4588850000000000    0.0012670000000000 Mo
   0.0178590000000000    0.1297760000000000    0.4600440000000000 O
   0.9821410000000000    0.6297760000000000    0.4600440000000000 O
   0.0159730000000000    0.1645330000000000    0.0457000000000000 O
   0.9840269999999999    0.6645330000000000    0.0457000000000000 O
   0.1737090000000000    0.8888960000000000    0.7524060000000000 O
   0.8262910000000000    0.3888960000000000    0.7524060000000000 O
   0.4650889999999999    0.5810500000000000    0.5458970000000000 O
   0.5349110000000000    0.0810500000000000    0.5458970000000000 O
   0.3286060000000000    0.8755100000000000    0.2532110000000000 O
   0.6713940000000000    0.3755100000000000    0.2532110000000000 O
   0.5018150000000000    0.1497840000000000    0.9607499999999999 O
   0.4981850000000000    0.6497840000000000    0.9607499999999999 O
