Li3 Bi1
1.0
   0.0000000000000000    3.3684550000000000    3.3684550000000000
   3.3684550000000000    0.0000000000000000    3.3684550000000000
   3.3684550000000000    3.3684550000000000    0.0000000000000000
Li Bi
3 1
direct
   0.2500000000000000    0.2500000000000000    0.2500000000000001 Li
   0.5000000000000000    0.5000000000000000    0.5000000000000001 Li
   0.7500000000000000    0.7500000000000000    0.7500000000000000 Li
   0.0000000000000000    0.0000000000000000    0.0000000000000000 Bi
