Li5 Mg1
1.0
   5.2256359999999997   -2.6362230000000002    0.0000000000000000
   5.2256359999999997    2.6362230000000002    0.0000000000000000
   3.8957180000000000    0.0000000000000000    4.3681039999999998
Li Mg
5 1
direct
   0.1674130000000000    0.8325870000000001    0.5000000000000000 Li
   0.4999999999999999    0.1674129999999999    0.8325870000000000 Li
   0.8325870000000000    0.5000000000000000    0.1674130000000000 Li
   0.3332530000000000    0.3332530000000000    0.3332530000000000 Li
   0.6667470000000001    0.6667470000000001    0.6667470000000000 Li
   0.0000000000000000    0.0000000000000000    0.0000000000000000 Mg
