Na4 O32
1.0
  15.7583420000000007    0.0000000000000000    0.0000000000000000
   0.0000000000000000    5.6958200000000003    0.0000000000000000
   0.0000000000000000    1.1743990000000000    6.6509780000000003
Na O
4 32
direct
   0.7974490000000000    0.5254270000000000    0.0580100000000000 Na
   0.2974490000000000    0.4745730000000000    0.4419899999999999 Na
   0.2025510000000000    0.4745730000000001    0.9419899999999999 Na
   0.7025510000000000    0.5254270000000000    0.5580100000000000 Na
   0.5771530000000000    0.8547090000000002    0.4998159999999999 O
   0.0771530000000000    0.1452910000000000    0.0001840000000000 O
   0.4228470000000000    0.1452910000000000    0.5001840000000000 O
   0.9228470000000000    0.8547090000000001    0.9998160000000000 O
   0.7327170000000001    0.0171420000000000    0.7442910000000000 O
   0.2327170000000000    0.9828579999999999    0.7557089999999999 O
   0.2672830000000000    0.9828580000000000    0.2557090000000000 O
   0.7672830000000002    0.0171420000000000    0.2442910000000000 O
   0.7138300000000000    0.7854790000000000    0.8117899999999999 O
   0.2138300000000000    0.2145210000000000    0.6882100000000000 O
   0.2861700000000000    0.2145210000000000    0.1882100000000000 O
   0.7861700000000000    0.7854790000000000    0.3117900000000000 O
   0.5855960000000000    0.4602130000000000    0.3349830000000000 O
   0.0855960000000000    0.5397870000000000    0.1650170000000000 O
   0.4144040000000001    0.5397870000000000    0.6650170000000000 O
   0.9144040000000000    0.4602129999999999    0.8349829999999999 O
   0.6018320000000001    0.5714640000000000    0.1473670000000000 O
   0.1018320000000000    0.4285360000000000    0.3526330000000000 O
   0.3981680000000000    0.4285360000000000    0.8526330000000000 O
   0.8981680000000001    0.5714640000000000    0.6473669999999999 O
   0.5371359999999999    0.6567600000000000    0.0413040000000000 O
   0.0371360000000000    0.3432399999999999    0.4586960000000000 O
   0.4628640000000000    0.3432399999999999    0.9586959999999999 O
   0.9628640000000002    0.6567600000000000    0.5413039999999999 O
   0.6808010000000000    0.1738030000000000    0.8077429999999999 O
   0.1808010000000000    0.8261970000000000    0.6922569999999999 O
   0.3191990000000000    0.8261970000000000    0.1922570000000000 O
   0.8191990000000001    0.1738030000000000    0.3077430000000000 O
   0.5915000000000000    0.9913570000000000    0.3403930000000000 O
   0.0915000000000000    0.0086430000000000    0.1596070000000000 O
   0.4085000000000000    0.0086430000000000    0.6596069999999999 O
   0.9085000000000001    0.9913569999999999    0.8403929999999999 O
