Ga6 Ge2
1.0
   3.0905800000000001   -5.3530410000000002    0.0000000000000000
   3.0905800000000001    5.3530410000000002    0.0000000000000000
   0.0000000000000000    0.0000000000000000    4.7270370000000002
Ga Ge
6 2
direct
   0.1663680000000000    0.3327349999999999    0.2500000000000000 Ga
   0.6672649999999999    0.8336319999999999    0.2500000000000000 Ga
   0.1663680000000000    0.8336320000000000    0.2500000000000000 Ga
   0.8336320000000000    0.6672649999999998    0.7500000000000000 Ga
   0.3327350000000000    0.1663680000000000    0.7500000000000000 Ga
   0.8336320000000002    0.1663679999999999    0.7500000000000000 Ga
   0.3333330000000000    0.6666669999999999    0.7500000000000000 Ge
   0.6666670000000000    0.3333329999999999    0.2500000000000000 Ge
