W4 O12
1.0
   3.8849520000000002    0.0000000000000000    0.0000000000000000
   0.0000000000000000    7.6886859999999997    0.0000000000000000
   0.0000000000000000    0.0000000000000000    7.7497550000000004
W O
4 12
direct
   0.9703610000000000    0.7500000000000000    0.0163080000000000 W
   0.0296390000000000    0.7500000000000000    0.5163080000000000 W
   0.9703610000000000    0.2500000000000000    0.4836920000000000 W
   0.0296390000000000    0.2500000000000000    0.9836920000000000 W
   0.9983940000000001    0.2500000000000000    0.2440440000000000 O
   0.5064880000000000    0.2500000000000000    0.9934530000000000 O
   0.0000000000000000    0.5000000000000000    0.0000000000000000 O
   0.0016060000000000    0.2500000000000000    0.7440440000000000 O
   0.5064880000000000    0.7500000000000000    0.5065470000000000 O
   0.0000000000000000    0.0000000000000000    0.0000000000000000 O
   0.0016060000000000    0.7500000000000000    0.7559560000000000 O
   0.4935120000000001    0.7500000000000000    0.0065470000000000 O
   0.9983940000000001    0.7500000000000000    0.2559560000000000 O
   0.0000000000000000    0.5000000000000000    0.5000000000000000 O
   0.4935120000000001    0.2500000000000000    0.4934529999999999 O
   0.0000000000000000    0.0000000000000000    0.5000000000000000 O
