Tl3 V1
1.0
  -2.3117519999999998    2.3117519999999998    4.7686400000000004
   2.3117519999999998   -2.3117519999999998    4.7686400000000004
   2.3117519999999998    2.3117519999999998   -4.7686400000000004
Tl V
3 1
direct
   0.7500000000000000    0.2500000000000001    0.5000000000000000 Tl
   0.2500000000000001    0.7500000000000000    0.5000000000000000 Tl
   0.5000000000000000    0.5000000000000000    0.0000000000000000 Tl
   0.0000000000000000    0.0000000000000000    0.0000000000000000 V
