Ca3 Pb1
1.0
   5.0805369999999996    0.0000000000000000    0.0000000000000000
   0.0000000000000000    5.0805369999999996    0.0000000000000000
   0.0000000000000000    0.0000000000000000    5.0805369999999996
Ca Pb
3 1
direct
   0.0000000000000000    0.5000000000000000    0.5000000000000000 Ca
   0.5000000000000000    0.5000000000000000    0.0000000000000000 Ca
   0.5000000000000000    0.0000000000000000    0.5000000000000000 Ca
   0.0000000000000000    0.0000000000000000    0.0000000000000000 Pb
