Hf3 Ag1
1.0
   4.3714789999999999    0.0000000000000000    0.0000000000000000
   0.0000000000000000    4.3714789999999999    0.0000000000000000
   0.0000000000000000    0.0000000000000000    4.3714789999999999
Hf Ag
3 1
direct
   0.0000000000000000    0.5000000000000000    0.5000000000000000 Hf
   0.5000000000000000    0.0000000000000000    0.5000000000000000 Hf
   0.5000000000000000    0.5000000000000000    0.0000000000000000 Hf
   0.0000000000000000    0.0000000000000000    0.0000000000000000 Ag
