Cd6 Ga2
1.0
   3.1946089999999998   -5.5332239999999997    0.0000000000000000
   3.1946089999999998    5.5332239999999997    0.0000000000000000
   0.0000000000000000    0.0000000000000000    5.0576270000000001
Cd Ga
6 2
direct
   0.1679660000000000    0.3359320000000000    0.2500000000000000 Cd
   0.6640679999999999    0.8320339999999999    0.2500000000000000 Cd
   0.1679659999999999    0.8320340000000001    0.2500000000000000 Cd
   0.8320339999999999    0.6640679999999999    0.7500000000000000 Cd
   0.3359320000000000    0.1679660000000000    0.7500000000000000 Cd
   0.8320339999999999    0.1679659999999999    0.7500000000000000 Cd
   0.3333329999999999    0.6666669999999999    0.7500000000000000 Ga
   0.6666669999999999    0.3333329999999999    0.2500000000000000 Ga
