La5 S8
1.0
   0.0000000000000000    6.0656819999999998    6.0656819999999998
   6.0656819999999998    0.0000000000000000    6.0656819999999998
   6.0656819999999998    6.0656819999999998    0.0000000000000000
La S
5 8
direct
   0.3666160000000001    0.8777950000000000    0.8777950000000001 La
   0.8777950000000001    0.3666159999999999    0.8777950000000001 La
   0.8777950000000001    0.8777950000000000    0.3666159999999999 La
   0.8777950000000001    0.8777950000000000    0.8777950000000000 La
   0.5000000000000001    0.5000000000000000    0.4999999999999999 La
   0.1004039999999999    0.6331990000000001    0.6331990000000001 S
   0.6331990000000000    0.1004040000000000    0.6331990000000001 S
   0.6331990000000000    0.6331990000000001    0.1004040000000000 S
   0.6331990000000000    0.6331990000000001    0.6331990000000001 S
   0.6697640000000001    0.1100790000000000    0.1100790000000000 S
   0.1100790000000000    0.6697640000000001    0.1100790000000000 S
   0.1100790000000000    0.1100790000000000    0.6697640000000001 S
   0.1100790000000000    0.1100790000000000    0.1100790000000000 S
