Hf4 N3
1.0
  10.6059570000000001   -1.5980540000000001    0.0000000000000000
  10.6059570000000001    1.5980540000000001    0.0000000000000000
  10.3651700000000009    0.0000000000000000    2.7574179999999999
Hf N
4 3
direct
   0.6256009999999997    0.6256010000000000    0.6256010000000000 Hf
   0.3748259999999999    0.3748259999999999    0.3748260000000000 Hf
   0.7910399999999999    0.7910399999999997    0.7910400000000000 Hf
   0.2063810000000000    0.2063810000000000    0.2063810000000000 Hf
   0.5007040000000000    0.5007040000000000    0.5007040000000000 N
   0.0018800000000000    0.0018800000000000    0.0018800000000000 N
   0.9145679999999998    0.9145679999999999    0.9145680000000000 N
