Ca1 Zn3
1.0
   0.0000000000000000    3.3561459999999999    3.3561459999999999
   3.3561459999999999    0.0000000000000000    3.3561459999999999
   3.3561459999999999    3.3561459999999999    0.0000000000000000
Ca Zn
1 3
direct
   0.5000000000000001    0.5000000000000000    0.4999999999999999 Ca
   0.0000000000000000    0.0000000000000000    0.0000000000000000 Zn
   0.2500000000000001    0.2500000000000000    0.2500000000000000 Zn
   0.7500000000000001    0.7500000000000001    0.7500000000000001 Zn
