Nd4 H10
1.0
  -2.7143809999999999    2.7143809999999999    5.5215160000000001
   2.7143809999999999   -2.7143809999999999    5.5215160000000001
   2.7143809999999999    2.7143809999999999   -5.5215160000000001
Nd H
4 10
direct
   0.4965230000000001    0.9965229999999999    0.5000000000000000 Nd
   0.7465229999999999    0.7465229999999999    0.0000000000000001 Nd
   0.0034770000000001    0.5034770000000000    0.5000000000000000 Nd
   0.2534770000000000    0.2534770000000000    0.0000000000000000 Nd
   0.3750000000000001    0.3558529999999999    0.4808530000000000 H
   0.8750000000000002    0.8941470000000000    0.5191470000000001 H
   0.6441469999999999    0.1250000000000000    0.0191470000000001 H
   0.1058530000000003    0.6250000000000000    0.9808530000000002 H
   0.3749999999999999    0.8941469999999999    0.0191470000000000 H
   0.8750000000000002    0.3558530000000001    0.9808530000000002 H
   0.6441470000000002    0.6250000000000000    0.5191470000000001 H
   0.1058530000000001    0.1250000000000000    0.4808530000000000 H
   0.2500000000000001    0.7500000000000000    0.5000000000000001 H
   0.5000000000000000    0.5000000000000000    0.0000000000000000 H
