Zn2 F4
1.0
   4.8025270000000004    0.0000000000000000    0.0000000000000000
   0.0000000000000000    4.8025270000000004    0.0000000000000000
   0.0000000000000000    0.0000000000000000    3.1850329999999998
Zn F
2 4
direct
   0.5000000000000000    0.5000000000000000    0.5000000000000000 Zn
   0.0000000000000000    0.0000000000000000    0.0000000000000000 Zn
   0.6958300000000001    0.6958300000000001    0.0000000000000000 F
   0.1958300000000000    0.8041700000000001    0.5000000000000000 F
   0.3041700000000001    0.3041700000000001    0.0000000000000000 F
   0.8041700000000001    0.1958300000000000    0.5000000000000000 F
