Mn4 Sn2
1.0
   2.2538800000000001   -3.9038349999999999    0.0000000000000000
   2.2538800000000001    3.9038349999999999    0.0000000000000000
   0.0000000000000000    0.0000000000000000    5.4949990000000000
Mn Sn
4 2
direct
   0.0000000000000000    0.0000000000000000    0.0000000000000000 Mn
   0.0000000000000000    0.0000000000000000    0.5000000000000000 Mn
   0.3333330000000000    0.6666670000000000    0.7500000000000000 Mn
   0.6666670000000000    0.3333330000000000    0.2500000000000000 Mn
   0.3333330000000000    0.6666670000000000    0.2500000000000000 Sn
   0.6666670000000000    0.3333330000000000    0.7500000000000000 Sn
