K2 Ba6
1.0
   4.5400729999999996   -7.8636369999999998    0.0000000000000000
   4.5400729999999996    7.8636369999999998    0.0000000000000000
   0.0000000000000000    0.0000000000000000    7.4522120000000003
K Ba
2 6
direct
   0.6666670000000000    0.3333330000000000    0.2500000000000000 K
   0.3333329999999999    0.6666670000000000    0.7500000000000000 K
   0.8373100000000000    0.6746200000000001    0.7500000000000000 Ba
   0.1626899999999999    0.8373100000000000    0.2500000000000000 Ba
   0.6746200000000000    0.8373100000000001    0.2500000000000000 Ba
   0.1626900000000000    0.3253800000000000    0.2500000000000000 Ba
   0.3253800000000000    0.1626900000000000    0.7500000000000000 Ba
   0.8373099999999999    0.1626900000000000    0.7500000000000000 Ba
