Zn1 Au4
1.0
  11.4933479999999992   -1.4887440000000001    0.0000000000000000
  11.4933479999999992    1.4887440000000001    0.0000000000000000
  11.3005089999999999    0.0000000000000000    2.5713599999999999
Zn Au
1 4
direct
   0.0000000000000000    0.0000000000000000    0.0000000000000000 Zn
   0.6054700000000000    0.6054700000000000    0.6054700000000000 Au
   0.2015170000000000    0.2015170000000000    0.2015170000000000 Au
   0.7984830000000003    0.7984830000000003    0.7984829999999999 Au
   0.3945300000000000    0.3945300000000000    0.3945299999999999 Au
