Ho28 Ge46
1.0
   2.8708119999999999   -6.8779550000000000    0.0000000000000000
   2.8708119999999999    6.8779550000000000    0.0000000000000000
   0.0000000000000000    0.0000000000000000   40.2949559999999991
Ho Ge
28 46
direct
   0.7221420000000001    0.7221420000000001    0.0000000000000000 Ho
   0.2778580000000000    0.2778580000000000    0.5000000000000000 Ho
   0.7458030000000000    0.2541970000000000    0.7500000000000000 Ho
   0.2541970000000000    0.7458030000000000    0.2500000000000000 Ho
   0.2395800000000000    0.2322500000000000    0.7851260000000000 Ho
   0.2322500000000000    0.2395800000000000    0.2148740000000000 Ho
   0.7604200000000001    0.7677500000000002    0.2851260000000000 Ho
   0.7677500000000002    0.7604200000000001    0.7148740000000000 Ho
   0.7447750000000000    0.7529690000000000    0.8570940000000000 Ho
   0.7529700000000000    0.7447760000000000    0.1429060000000000 Ho
   0.2552240000000000    0.2470310000000000    0.3570940000000000 Ho
   0.2470310000000000    0.2552250000000000    0.6429060000000000 Ho
   0.2654880000000000    0.2577580000000000    0.9301410000000000 Ho
   0.2577580000000000    0.2654890000000000    0.0698590000000000 Ho
   0.7345110000000000    0.7422420000000000    0.4301410000000000 Ho
   0.7422420000000000    0.7345110000000000    0.5698590000000000 Ho
   0.2391750000000000    0.7318180000000000    0.8222340000000000 Ho
   0.7318180000000000    0.2391750000000000    0.1777660000000000 Ho
   0.7608250000000001    0.2681820000000000    0.3222340000000000 Ho
   0.2681820000000000    0.7608250000000001    0.6777660000000000 Ho
   0.7676490000000000    0.2608770000000000    0.8927310000000001 Ho
   0.2608770000000000    0.7676490000000000    0.1072690000000000 Ho
   0.2323510000000001    0.7391230000000000    0.3927310000000000 Ho
   0.7391230000000000    0.2323510000000001    0.6072689999999999 Ho
   0.2427010000000000    0.7492170000000000    0.9628359999999999 Ho
   0.7492170000000000    0.2427010000000000    0.0371640000000000 Ho
   0.7572989999999999    0.2507829999999999    0.4628360000000000 Ho
   0.2507829999999999    0.7572989999999999    0.5371640000000000 Ho
   0.1973260000000000    0.8026740000000000    0.7500000000000000 Ge
   0.8026740000000000    0.1973260000000000    0.2500000000000000 Ge
   0.5880480000000000    0.7890170000000000    0.7776270000000000 Ge
   0.7890170000000000    0.5880480000000000    0.2223730000000000 Ge
   0.4119520000000000    0.2109830000000000    0.2776270000000000 Ge
   0.2109830000000000    0.4119520000000000    0.7223730000000000 Ge
   0.1948350000000000    0.3011050000000000    0.8573980000000000 Ge
   0.3011050000000000    0.1948350000000000    0.1426020000000000 Ge
   0.8051650000000002    0.6988950000000002    0.3573980000000000 Ge
   0.6988950000000002    0.8051650000000002    0.6426020000000000 Ge
   0.7156520000000000    0.9199040000000001    0.9376890000000000 Ge
   0.9199040000000001    0.7156520000000000    0.0623110000000000 Ge
   0.2843480000000000    0.0800960000000000    0.4376889999999999 Ge
   0.0800960000000000    0.2843480000000000    0.5623110000000000 Ge
   0.1162410000000000    0.3013740000000000    0.9954640000000000 Ge
   0.3013730000000000    0.1162410000000000    0.0045360000000000 Ge
   0.8837590000000001    0.6986270000000000    0.4954640000000000 Ge
   0.6986260000000001    0.8837590000000001    0.5045360000000000 Ge
   0.8345450000000001    0.1680800000000001    0.8199730000000001 Ge
   0.1680800000000001    0.8345450000000001    0.1800270000000000 Ge
   0.1654550000000000    0.8319200000000000    0.3199730000000000 Ge
   0.8319200000000000    0.1654550000000000    0.6800270000000000 Ge
   0.3336940000000000    0.6652370000000000    0.8945510000000000 Ge
   0.6652370000000000    0.3336940000000000    0.1054490000000000 Ge
   0.6663060000000000    0.3347630000000000    0.3945510000000000 Ge
   0.3347630000000000    0.6663060000000000    0.6054490000000000 Ge
   0.5876189999999999    0.2879660000000000    0.8297840000000000 Ge
   0.2879660000000000    0.5876189999999999    0.1702160000000000 Ge
   0.4123810000000001    0.7120340000000001    0.3297840000000000 Ge
   0.7120340000000001    0.4123810000000001    0.6702160000000000 Ge
   0.2108670000000000    0.9106480000000000    0.8851669999999999 Ge
   0.9106480000000000    0.2108670000000000    0.1148330000000000 Ge
   0.7891330000000000    0.0893520000000000    0.3851670000000000 Ge
   0.0893520000000000    0.7891330000000000    0.6148330000000000 Ge
   0.6872130000000000    0.3146950000000001    0.9660359999999999 Ge
   0.3146950000000001    0.6872130000000000    0.0339640000000000 Ge
   0.3127869999999999    0.6853050000000001    0.4660360000000000 Ge
   0.6853050000000001    0.3127869999999999    0.5339640000000000 Ge
   0.8343020000000001    0.6676040000000001    0.7872440000000001 Ge
   0.6676040000000001    0.8343020000000001    0.2127560000000000 Ge
   0.1656980000000000    0.3323960000000000    0.2872440000000000 Ge
   0.3323960000000000    0.1656980000000000    0.7127559999999999 Ge
   0.8258449999999999    0.6638500000000001    0.9266300000000000 Ge
   0.6638500000000001    0.8258449999999999    0.0733700000000000 Ge
   0.1741550000000000    0.3361500000000000    0.4266300000000000 Ge
   0.3361500000000000    0.1741550000000000    0.5733700000000000 Ge
