Mg8 Si12
1.0
   1.9188850000000000    5.0792130000000002    0.0000000000000000
  -1.9188850000000000    5.0792130000000002    0.0000000000000000
   0.0000000000000000    3.2974290000000002   18.2395689999999995
Mg Si
8 12
direct
   0.1076180000000000    0.1076180000000000    0.1948090000000000 Mg
   0.1962420000000000    0.1962420000000000    0.8023770000000000 Mg
   0.7789570000000001    0.7789570000000001    0.0525050000000000 Mg
   0.5219420000000000    0.5219420000000000    0.9450750000000000 Mg
   0.9378760000000000    0.9378760000000000    0.6970250000000000 Mg
   0.3710270000000001    0.3710270000000001    0.3009180000000000 Mg
   0.6089849999999999    0.6089849999999999    0.5508800000000001 Mg
   0.0346070000000000    0.0346070000000000    0.4067910000000000 Mg
   0.0609230000000000    0.0609230000000000    0.0502470000000000 Si
   0.2380699999999999    0.2380699999999999    0.9450610000000002 Si
   0.4476430000000001    0.4476430000000001    0.1282230000000000 Si
   0.8615210000000001    0.8615210000000001    0.8741700000000000 Si
   0.6562270000000000    0.6562270000000000    0.6941300000000000 Si
   0.6435510000000000    0.6435510000000000    0.3033900000000000 Si
   0.9102799999999999    0.9102799999999999    0.5520750000000000 Si
   0.7490039999999999    0.7490039999999999    0.4088240000000001 Si
   0.2768210000000000    0.2768210000000000    0.6206780000000000 Si
   0.3296799999999999    0.3296799999999999    0.4759070000000000 Si
   0.8189030000000002    0.8189030000000002    0.1964530000000000 Si
   0.4828750000000001    0.4828750000000001    0.8003910000000001 Si
