Ce5 Mg1
1.0
   1.6004280000000000   -2.7720220000000002    0.0000000000000000
   1.6004280000000000    2.7720220000000002    0.0000000000000000
   0.0000000000000000    0.0000000000000000   17.6572730000000000
Ce Mg
5 1
direct
   0.0000000000000000    0.0000000000000000    0.8328600000000000 Ce
   0.6666669999999999    0.3333330000000000    0.6648180000000000 Ce
   0.0000000000000000    0.0000000000000000    0.5000000000000000 Ce
   0.6666669999999999    0.3333330000000000    0.3351820000000000 Ce
   0.0000000000000000    0.0000000000000000    0.1671400000000000 Ce
   0.6666669999999999    0.3333330000000000    0.0000000000000000 Mg
