Ca7 Ge1
1.0
   0.0000000000000000    5.2620969999999998    5.2620969999999998
   5.2620969999999998    0.0000000000000000    5.2620969999999998
   5.2620969999999998    5.2620969999999998    0.0000000000000000
Ca Ge
7 1
direct
   0.4999999999999999    0.5000000000000000    0.0000000000000000 Ca
   0.4999999999999999    0.5000000000000000    0.5000000000000000 Ca
  -0.0000000000000000    0.5000000000000000    0.0000000000000000 Ca
   0.5000000000000000   -0.0000000000000000    0.0000000000000000 Ca
  -0.0000000000000000    0.5000000000000000    0.5000000000000000 Ca
   0.4999999999999999    0.0000000000000000    0.5000000000000000 Ca
  -0.0000000000000000    0.0000000000000000    0.5000000000000000 Ca
   0.0000000000000000    0.0000000000000000    0.0000000000000000 Ge
