Zr3 O6
1.0
   4.5099739999999997    3.1163590000000001    0.0000000000000000
  -4.5099739999999997    3.1163590000000001    0.0000000000000000
   0.0000000000000000    3.0350419999999998    4.9508250000000000
Zr O
3 6
direct
   0.3164020000000000    0.6835980000000000    0.0000000000000000 Zr
   0.6835980000000000    0.3164020000000000    0.0000000000000000 Zr
   0.5000000000000000    0.5000000000000000    0.5000000000000000 Zr
   0.6717060000000000    0.6717060000000000    0.7319140000000000 O
   0.5382090000000000    0.8756610000000000    0.2101230000000000 O
   0.1243390000000000    0.4617910000000001    0.7898770000000001 O
   0.4617910000000001    0.1243390000000000    0.7898770000000001 O
   0.8756610000000000    0.5382090000000000    0.2101230000000000 O
   0.3282940000000000    0.3282940000000000    0.2680860000000000 O
