Ba2 Ge6
1.0
   3.4283619999999999   -5.9380980000000001    0.0000000000000000
   3.4283619999999999    5.9380980000000001    0.0000000000000000
   0.0000000000000000    0.0000000000000000    5.2618910000000003
Ba Ge
2 6
direct
   0.3333330000000000    0.6666670000000000    0.7500000000000000 Ba
   0.6666670000000000    0.3333330000000000    0.2500000000000000 Ba
   0.1266559999999999    0.8733440000000001    0.2500000000000000 Ge
   0.1266560000000000    0.2533120000000000    0.2500000000000000 Ge
   0.7466880000000000    0.8733440000000001    0.2500000000000000 Ge
   0.8733440000000001    0.1266559999999999    0.7500000000000000 Ge
   0.8733440000000001    0.7466880000000000    0.7500000000000000 Ge
   0.2533120000000000    0.1266560000000000    0.7500000000000000 Ge
