Nb6 Ir2
1.0
   5.1837689999999998    0.0000000000000000    0.0000000000000000
   0.0000000000000000    5.1837689999999998    0.0000000000000000
   0.0000000000000000    0.0000000000000000    5.1837689999999998
Nb Ir
6 2
direct
   0.5000000000000000    0.2500000000000000    0.0000000000000000 Nb
   0.5000000000000000    0.7500000000000000    0.0000000000000000 Nb
   0.2500000000000000    0.0000000000000000    0.5000000000000000 Nb
   0.7500000000000000    0.0000000000000000    0.5000000000000000 Nb
   0.0000000000000000    0.5000000000000000    0.2500000000000000 Nb
   0.0000000000000000    0.5000000000000000    0.7500000000000000 Nb
   0.5000000000000000    0.5000000000000000    0.5000000000000000 Ir
   0.0000000000000000    0.0000000000000000    0.0000000000000000 Ir
