Cd12 I24
1.0
   2.1672289999999998   -3.7537500000000001    0.0000000000000000
   2.1672289999999998    3.7537500000000001    0.0000000000000000
   0.0000000000000000    0.0000000000000000   90.3839470000000063
Cd I
12 24
direct
   0.0000000000000000    0.0000000000000000    0.2708170000000000 Cd
   0.0000000000000000    0.0000000000000000    0.9374749999999999 Cd
   0.6666670000000000    0.3333329999999999    0.0208650000000000 Cd
   0.0000000000000000    0.0000000000000000    0.4374770000000000 Cd
   0.6666670000000000    0.3333329999999999    0.7708259999999999 Cd
   0.0000000000000000    0.0000000000000000    0.1041510000000000 Cd
   0.6666670000000000    0.3333329999999999    0.3541980000000000 Cd
   0.0000000000000000    0.0000000000000000    0.6041470000000000 Cd
   0.6666670000000000    0.3333329999999999    0.1875330000000000 Cd
   0.0000000000000000    0.0000000000000000    0.8541719999999999 Cd
   0.6666670000000000    0.3333329999999999    0.5208630000000000 Cd
   0.0000000000000000    0.0000000000000000    0.6874939999999999 Cd
   0.0000000000000000    0.0000000000000000    0.1684570000000000 I
   0.6666670000000000    0.3333329999999999    0.5850740000000000 I
   0.3333330000000000    0.6666669999999999    0.7898940000000000 I
   0.6666670000000000    0.3333329999999999    0.0850810000000000 I
   0.3333330000000000    0.6666669999999999    0.4565450000000000 I
   0.3333330000000000    0.6666669999999999    0.2066040000000000 I
   0.3333330000000000    0.6666669999999999    0.9565430000000000 I
   0.6666670000000000    0.3333329999999999    0.8351060000000000 I
   0.6666670000000000    0.3333329999999999    0.9184040000000000 I
   0.3333330000000000    0.6666669999999999    0.5399330000000000 I
   0.3333330000000000    0.6666669999999999    0.1232190000000000 I
   0.3333330000000000    0.6666669999999999    0.0399360000000000 I
   0.0000000000000000    0.0000000000000000    0.7517450000000000 I
   0.3333330000000000    0.6666669999999999    0.2898850000000000 I
   0.3333330000000000    0.6666669999999999    0.3732690000000000 I
   0.0000000000000000    0.0000000000000000    0.3351210000000000 I
   0.3333330000000000    0.6666669999999999    0.6232170000000000 I
   0.6666670000000000    0.3333329999999999    0.4184050000000000 I
   0.3333330000000000    0.6666669999999999    0.7065580000000000 I
   0.0000000000000000    0.0000000000000000    0.0017850000000000 I
   0.6666670000000000    0.3333329999999999    0.6684300000000000 I
   0.6666670000000000    0.3333329999999999    0.2517470000000000 I
   0.3333330000000000    0.6666669999999999    0.8732420000000000 I
   0.0000000000000000    0.0000000000000000    0.5017830000000000 I
