Yb22 Ge20
1.0
  -5.4597499999999997    5.4597499999999997    8.6130739999999992
   5.4597499999999997   -5.4597499999999997    8.6130739999999992
   5.4597499999999997    5.4597499999999997   -8.6130739999999992
Yb Ge
22 20
direct
   0.6798190000000000    0.3201810000000000    0.0000000000000000 Yb
   0.1048300000000000    0.4225900000000001    0.3177610000000001 Yb
   0.8951700000000000    0.2129310000000000    0.3177610000000000 Yb
   0.0726530000000001    0.3217310000000000    0.7509220000000000 Yb
   0.3201810000000000    0.6798190000000000   -0.0000000000000000 Yb
   0.1573290000000000    0.1573290000000000    0.0000000000000000 Yb
   0.6782690000000000    0.4291900000000001    0.7509220000000000 Yb
   0.3201810000000000    0.3201810000000000    0.6403620000000000 Yb
   0.8951700000000000    0.5774100000000000    0.6822390000000000 Yb
   0.8426709999999999    0.8426709999999999    0.0000000000000000 Yb
   0.9273470000000000    0.6782690000000000    0.2490780000000000 Yb
   0.1048300000000001    0.7870690000000000    0.6822390000000000 Yb
   0.4291900000000001    0.6782690000000000    0.7509220000000000 Yb
   0.2129310000000000    0.8951700000000000    0.3177610000000000 Yb
   0.3217310000000000    0.5708100000000000    0.2490780000000000 Yb
   0.5774100000000000    0.8951700000000000    0.6822390000000000 Yb
   0.6798190000000001    0.6798190000000001    0.3596380000000000 Yb
   0.5708100000000000    0.3217310000000000    0.2490780000000000 Yb
   0.6782690000000000    0.9273470000000000    0.2490780000000000 Yb
   0.4225900000000001    0.1048300000000000    0.3177610000000000 Yb
   0.7870690000000000    0.1048300000000001    0.6822390000000002 Yb
   0.3217310000000000    0.0726530000000000    0.7509220000000000 Yb
   0.1193740000000000    0.5000000000000000    0.6193740000000000 Ge
   0.1175630000000000    0.8824370000000000    0.0000000000000000 Ge
   0.8824370000000000    0.1175630000000000   -0.0000000000000000 Ge
   0.0166520000000000    0.6038400000000000   -0.0000000000000000 Ge
   0.9833479999999999    0.9833479999999999    0.5871880000000000 Ge
   0.6038400000000000    0.0166520000000000    0.0000000000000000 Ge
   0.1175630000000000    0.1175630000000000    0.2351260000000000 Ge
   0.4146030000000000    0.4146030000000000    0.0000000000000000 Ge
   0.3961600000000000    0.9833479999999999    0.0000000000000000 Ge
   0.8824369999999999    0.8824369999999999    0.7648740000000001 Ge
   0.8806260000000002    0.5000000000000001    0.3806260000000001 Ge
   0.3961600000000000    0.3961600000000000    0.4128120000000000 Ge
   0.9833479999999999    0.3961600000000000   -0.0000000000000000 Ge
   0.0166520000000000    0.0166520000000000    0.4128120000000000 Ge
   0.5000000000000000    0.1193740000000000    0.6193740000000000 Ge
   0.5853969999999999    0.5853969999999999    0.0000000000000000 Ge
   0.2500000000000000    0.7500000000000000    0.5000000000000000 Ge
   0.6038400000000000    0.6038400000000000    0.5871880000000000 Ge
   0.7500000000000000    0.2500000000000000    0.5000000000000000 Ge
   0.5000000000000001    0.8806260000000002    0.3806260000000000 Ge
