Li6 As2
1.0
   2.1875650000000002   -3.7889740000000001    0.0000000000000000
   2.1875650000000002    3.7889740000000001    0.0000000000000000
   0.0000000000000000    0.0000000000000000    7.8132549999999998
Li As
6 2
direct
   0.0000000000000000    0.0000000000000000    0.2500000000000000 Li
   0.0000000000000000    0.0000000000000000    0.7500000000000001 Li
   0.3333330000000000    0.6666669999999999    0.5847950000000000 Li
   0.6666670000000000    0.3333330000000000    0.0847950000000000 Li
   0.6666670000000000    0.3333330000000000    0.4152050000000000 Li
   0.3333330000000000    0.6666669999999999    0.9152050000000002 Li
   0.3333330000000000    0.6666669999999999    0.2500000000000000 As
   0.6666670000000000    0.3333330000000000    0.7500000000000001 As
