Ta30 O75
1.0
  11.7322243000000004   -0.4255467400000000   -0.0103629000000000
  -0.3976276500000000   12.5349161799999997    0.0145376200000000
  -0.0097375600000000    0.0373822100000000   12.0354656900000005
Ta O
30 75
direct
   0.4192916900000000    0.6606850300000000    0.3070542399999999 Ta
   0.0414605700000000    0.4975441700000001    0.7742913699999999 Ta
   0.4839082900000000    0.7089981299999999    0.6129682399999999 Ta
   0.1153185700000000    0.3322071700000001    0.2475059500000000 Ta
   0.0370889400000000    0.8845059300000000    0.3213052000000000 Ta
   0.2839470300000000    0.7574455799999998    0.8584023100000000 Ta
   0.7813576999999999    0.9033015199999999    0.1467633600000000 Ta
   0.2086579300000000    0.6129309600000001    0.5254203700000000 Ta
   0.9848154700000000    0.6918047000000001    0.0894359000000000 Ta
   0.3546875400000000    0.9691669300000000    0.2915273700000000 Ta
   0.7676125499999998    0.5217987900000000    0.9101456000000000 Ta
   0.6829570999999999    0.5341867300000001    0.6724319700000000 Ta
   0.1302161400000000    0.3100521900000001    0.9992074500000001 Ta
   0.1372972200000000    0.9902566600000000    0.7819283900000000 Ta
   0.4316824300000001    0.3016966900000000    0.9384062199999998 Ta
   0.3700511400000000    0.8158556900000001    0.0869372000000000 Ta
   0.3507387900000000    0.5166547700000002    0.7476412900000001 Ta
   0.3494462200000000    0.2465929000000000    0.4176277000000000 Ta
   0.5283967400000000    0.3976315000000001    0.2274437800000000 Ta
   0.9081015900000001    0.0909944300000000    0.9398142800000000 Ta
   0.9147914299999997    0.6382424900000000    0.4835643800000000 Ta
   0.6952874100000001    0.6635507699999998    0.1553420600000000 Ta
   0.8486443800000000    0.4564495500000001    0.2514144500000000 Ta
   0.9602538600000000    0.7577297400000000    0.7862344400000001 Ta
   0.7264586600000000    0.8310375500000000    0.6083411100000000 Ta
   0.7292539400000000    0.2927428800000000    0.5030976099999999 Ta
   0.7086961400000003    0.2636780200000000    0.0689335400000000 Ta
   0.9389549900000000    0.1387844200000000    0.4359664100000000 Ta
   0.6579912600000000    0.0367181800000000    0.3852427500000000 Ta
   0.3139994799999999    0.2258176400000000    0.6664734900000000 Ta
   0.5720028599999999    0.2407018100000000    0.9725803700000001 O
   0.6331450500000000    0.1741642100000000    0.4557593899999999 O
   0.2605923000000001    0.9157891300000001    0.8192399199999999 O
   0.9760058600000001    0.6416434200000001    0.6924659199999998 O
   0.8329891200000001    0.7656139000000001    0.5204027000000000 O
   0.3336750600000000    0.1196238900000000    0.3395781700000000 O
   0.4324960900000000    0.8047857400000001    0.9460092199999999 O
   0.2762076600000001    0.6128934300000001    0.3774506200000001 O
   0.3047348700000000    0.6043900900000001    0.8687823500000000 O
   0.9347555100000001    0.7460746400000000    0.9450329100000001 O
   0.9955268200000001    0.2292799600000000    0.9493265800000000 O
   0.6503430900000000    0.6808071999999999    0.6004517700000001 O
   0.6774463200000000    0.6041951700000000    0.0071049500000000 O
   0.6833832000000000    0.4393026700000001    0.7984762100000001 O
   0.1845165300000000    0.5420886000000000    0.6883207800000001 O
   0.7651940900000000    0.6246946200000000    0.7821819200000000 O
   0.0095941600000000    0.7664963600000001    0.4102625100000001 O
   0.9678138700000001    0.4009042200000001    0.6931949300000001 O
   0.0513355500000000    0.5640034900000001    0.4916823700000000 O
   0.8156993100000000    0.8334570700000001    0.7367551500000001 O
   0.4250564800000001    0.1973842500000000    0.5602507000000000 O
   0.5006529299999999    0.9927707700000000    0.3751013399999999 O
   0.1271379700000000    0.4097476400000001    0.8763809799999999 O
   0.6550967299999999    0.8026098500000001    0.0953132300000000 O
   0.9107533600000002    0.9429306700000001    0.2438948200000000 O
   0.4474251500000000    0.5147001800000001    0.2810379200000000 O
   0.8100534200000001    0.5466036300000000    0.5725483099999999 O
   0.9291783300000002    0.5275014400000001    0.8917084600000000 O
   0.0978147800000000    0.6136293700000001    0.0608566300000000 O
   0.1950199600000000    0.1125481500000000    0.6989348100000000 O
   0.7757730200000000    0.3744560300000000    0.3820425500000000 O
   0.2596026000000000    0.3327797600000000    0.3149849100000000 O
   0.1233728200000000    0.7349604700000000    0.8249624900000000 O
   0.0025665200000000    0.4374049000000000    0.2848695900000000 O
   0.0555808500000000    0.7970626500000000    0.1890567500000000 O
   0.1472505700000000    0.4159431800000001    0.1125707900000000 O
   0.0359315600000000    0.2354899200000000    0.3620499099999999 O
   0.1939706100000000    0.9422532600000000    0.3181338100000000 O
   0.0021756400000000    0.0052823200000000    0.4388197500000000 O
   0.7857749900000000    0.1424364300000000    0.0386272100000000 O
   0.6542035200000001    0.3869441600000000    0.5931268800000000 O
   0.4340244699999999    0.4320000100000000    0.8651018900000000 O
   0.8128396400000000    0.1204199800000000    0.3468878699999999 O
   0.2300414800000000    0.7964664600000001    0.0200765800000000 O
   0.3757118899999999    0.8197880900000000    0.2848182900000000 O
   0.6682989200000000    0.4914740200000001    0.2100893900000000 O
   0.4853942700000001    0.3269119300000001    0.3686743399999999 O
   0.3779505500000000    0.9719067700000001    0.1372805700000000 O
   0.4488016200000001    0.3712987500000001    0.0945921700000000 O
   0.0613666000000000    0.0271480600000000    0.9097286000000001 O
   0.3879411800000000    0.6771743200000000    0.1465359700000000 O
   0.3097178700000001    0.3747193400000001    0.6982850400000001 O
   0.2743173400000001    0.2547349100000000    0.9792984100000000 O
   0.7522285100000000    0.3887145800000000    0.9872171900000000 O
   0.0991200900000000    0.2207724300000000    0.1452021200000000 O
   0.8508341600000001    0.9520571000000001    0.0154370400000000 O
   0.8493343000000001    0.5885151199999999    0.3531209500000000 O
   0.5895370000000000    0.6834796900000001    0.2693945100000000 O
   0.7189955200000000    0.9531022200000001    0.4967093800000000 O
   0.6154223100000001    0.2668368300000000    0.1974071700000000 O
   0.8471087900000001    0.0898936200000000    0.8071992500000000 O
   0.8341321400000002    0.3317580600000000    0.1669818000000000 O
   0.4015216200000001    0.2166997000000000    0.8033222499999999 O
   0.5651681300000001    0.8487305400000000    0.6376541300000000 O
   0.8298145000000002    0.7578365300000001    0.1884518400000000 O
   0.8599121800000002    0.2189506800000000    0.5506457400000000 O
   0.0322768500000000    0.8891105000000002    0.7168122099999999 O
   0.3734702900000000    0.7504027800000002    0.7230113000000000 O
   0.2074596300000000    0.7498628300000001    0.5522937200000000 O
   0.2317399600000000    0.2639126600000001    0.5261810900000000 O
   0.8648034800000000    0.5726939800000000    0.1326835100000000 O
   0.5163909800000002    0.5722111200000000    0.7114814800000000 O
   0.4691837000000000    0.7168767800000000    0.4578226699999999 O
   0.6816048700000001    0.9835018700000001    0.2367013000000000 O
   0.3618918000000000    0.5759473400000000    0.5886342399999999 O
