Pr1 Sm3
1.0
  -2.5748069999999998    2.5748069999999998    5.1593600000000004
   2.5748069999999998   -2.5748069999999998    5.1593600000000004
   2.5748069999999998    2.5748069999999998   -5.1593600000000004
Pr Sm
1 3
direct
   0.0000000000000000    0.0000000000000000    0.0000000000000000 Pr
   0.7500000000000000    0.2500000000000000    0.5000000000000000 Sm
   0.2500000000000000    0.7500000000000000    0.5000000000000000 Sm
   0.5000000000000000    0.5000000000000000    0.0000000000000000 Sm
