Zr2 Cu4
1.0
   2.3451550000000001   -4.2762039999999999    0.0000000000000000
   2.3451550000000001    4.2762039999999999    0.0000000000000000
   0.0000000000000000    0.0000000000000000    4.6383900000000002
Zr Cu
2 4
direct
   0.2341700000000000    0.2341700000000000    0.7499999999999999 Zr
   0.7658300000000001    0.7658300000000000    0.2500000000000000 Zr
   0.5361580000000000    0.8979699999999999    0.7499999999999999 Cu
   0.8979700000000000    0.5361579999999999    0.7499999999999999 Cu
   0.1020300000000001    0.4638420000000000    0.2500000000000000 Cu
   0.4638420000000000    0.1020300000000001    0.2500000000000000 Cu
