Ti4 B2
1.0
  -2.8290690000000001    2.8290690000000001    2.3682650000000001
   2.8290690000000001   -2.8290690000000001    2.3682650000000001
   2.8290690000000001    2.8290690000000001   -2.3682650000000001
Ti B
4 2
direct
   0.6644000000000000    0.1644000000000000    0.8288000000000000 Ti
   0.3356000000000001    0.8356000000000000    0.1712000000000000 Ti
   0.8356000000000000    0.6644000000000000    0.5000000000000000 Ti
   0.1644000000000000    0.3356000000000000    0.5000000000000000 Ti
   0.7500000000000000    0.7500000000000000    0.0000000000000000 B
   0.2500000000000000    0.2500000000000000    0.0000000000000000 B
