Zr2 Mo6
1.0
   5.2060599999999999    0.0000000000000000    0.0000000000000000
   0.0000000000000000    5.2060599999999999    0.0000000000000000
   0.0000000000000000    0.0000000000000000    5.2060599999999999
Zr Mo
2 6
direct
   0.5000000000000000    0.5000000000000000    0.5000000000000000 Zr
   0.0000000000000000    0.0000000000000000    0.0000000000000000 Zr
   0.0000000000000000    0.5000000000000000    0.2500000000000000 Mo
   0.0000000000000000    0.5000000000000000    0.7500000000000000 Mo
   0.5000000000000000    0.7500000000000000    0.0000000000000000 Mo
   0.5000000000000000    0.2500000000000000    0.0000000000000000 Mo
   0.7500000000000000    0.0000000000000000    0.5000000000000000 Mo
   0.2500000000000000    0.0000000000000000    0.5000000000000000 Mo
