Sm12 Co4
1.0
   6.3829490000000000    0.0000000000000000    0.0000000000000000
   0.0000000000000000    7.0371810000000004    0.0000000000000000
   0.0000000000000000    0.0000000000000000    9.7510030000000008
Sm Co
12 4
direct
   0.1453780000000000    0.4556410000000001    0.7500000000000000 Sm
   0.1752520000000000    0.1730860000000000    0.0690010000000000 Sm
   0.1752520000000000    0.1730860000000000    0.4309990000000001 Sm
   0.3247480000000000    0.6730860000000001    0.0690010000000000 Sm
   0.3247480000000000    0.6730860000000001    0.4309990000000001 Sm
   0.3546220000000000    0.9556410000000000    0.7500000000000000 Sm
   0.6453780000000000    0.0443590000000000    0.2500000000000000 Sm
   0.6752520000000001    0.3269140000000000    0.5690010000000000 Sm
   0.6752520000000001    0.3269140000000000    0.9309990000000000 Sm
   0.8247479999999999    0.8269140000000000    0.5690010000000000 Sm
   0.8247479999999999    0.8269140000000000    0.9309990000000000 Sm
   0.8546220000000000    0.5443590000000000    0.2500000000000000 Sm
   0.0561680000000000    0.8869830000000001    0.2500000000000000 Co
   0.4438320000000000    0.3869830000000000    0.2500000000000000 Co
   0.5561680000000000    0.6130170000000000    0.7500000000000000 Co
   0.9438320000000000    0.1130170000000000    0.7500000000000000 Co
