Be48 P32
1.0
  -5.1179249999999996    5.1179249999999996   10.1874830000000003
   5.1179249999999996   -5.1179249999999996   10.1874830000000003
   5.1179249999999996    5.1179249999999996  -10.1874830000000003
Be P
48 32
direct
   0.8283860000000000    0.8182280000000000    0.2730880000000000 Be
   0.5682280000000000    0.7951400000000001    0.4898420000000000 Be
   0.3052990000000000    0.0783860000000000    0.5101580000000001 Be
   0.4216140000000000    0.1947010000000000    0.4898420000000000 Be
   0.7048600000000000    0.9317719999999999    0.5101580000000000 Be
   0.9447010000000001    0.9548600000000002    0.2730880000000000 Be
   0.6817720000000000    0.6716140000000000    0.7269120000000000 Be
   0.5451400000000000    0.5552990000000001    0.7269120000000000 Be
   0.9216140000000000    0.4317719999999999    0.2269120000000000 Be
   0.1817720000000000    0.4548600000000000    0.0101580000000000 Be
   0.4447010000000001    0.1716140000000000    0.9898420000000001 Be
   0.3283860000000000    0.0552990000000000    0.0101580000000000 Be
   0.0451400000000001    0.3182280000000002    0.9898420000000002 Be
   0.8052990000000000    0.2951400000000000    0.2269120000000001 Be
   0.0682280000000000    0.5783860000000001    0.7730880000000001 Be
   0.2048600000000000    0.6947010000000000    0.7730880000000000 Be
   0.8101009999999998    0.0769570000000000    0.5024960000000001 Be
   0.8269570000000002    0.8244600000000001    0.7668550000000001 Be
   0.0576050000000000    0.0601010000000000    0.2331450000000000 Be
   0.4398990000000000    0.4423949999999999    0.7668550000000000 Be
   0.6755400000000000    0.6730429999999998    0.2331450000000000 Be
   0.1923950000000000    0.9255400000000001    0.5024960000000001 Be
   0.4230430000000001    0.6898990000000000    0.4975040000000000 Be
   0.5744599999999999    0.3076050000000000    0.4975040000000000 Be
   0.9398990000000002    0.1730430000000000    0.9975040000000001 Be
   0.9230430000000001    0.4255399999999999    0.7331450000000000 Be
   0.6923950000000000    0.1898990000000000    0.2668550000000000 Be
   0.3101010000000001    0.8076050000000000    0.7331450000000000 Be
   0.0744600000000000    0.5769570000000001    0.2668550000000001 Be
   0.5576050000000001    0.3244600000000001    0.9975040000000001 Be
   0.3269569999999999    0.5601010000000000    0.0024960000000000 Be
   0.1755400000000000    0.9423950000000000    0.0024960000000000 Be
   0.5552319999999998    0.8140100000000000    0.0080560000000000 Be
   0.5640100000000001    0.0559530000000001    0.7587780000000001 Be
   0.2971750000000000    0.8052319999999999    0.2412220000000000 Be
   0.6947680000000001    0.2028250000000000    0.7587780000000000 Be
   0.4440470000000001    0.9359899999999999    0.2412220000000000 Be
   0.9528250000000000    0.6940469999999999    0.0080560000000000 Be
   0.6859900000000000    0.9447680000000001    0.9919440000000000 Be
   0.8059530000000000    0.5471749999999999    0.9919440000000000 Be
   0.1947680000000001    0.4359900000000000    0.4919440000000000 Be
   0.1859900000000000    0.1940470000000000    0.7412220000000000 Be
   0.4528250000000000    0.4447680000000000    0.2587780000000000 Be
   0.0552320000000000    0.0471750000000000    0.7412220000000002 Be
   0.3059530000000000    0.3140100000000001    0.2587780000000000 Be
   0.7971750000000000    0.5559530000000000    0.4919440000000000 Be
   0.0640100000000000    0.3052320000000001    0.5080560000000001 Be
   0.9440470000000000    0.7028250000000000    0.5080560000000001 Be
   0.0000000000000000    0.0000000000000000    0.0000000000000000 P
   0.7500000000000000    0.2500000000000000    0.5000000000000000 P
   0.2500000000000000    0.7500000000000000    0.5000000000000000 P
   0.5000000000000000    0.5000000000000000    0.0000000000000000 P
   0.7500000000000000    0.7500000000000000    0.0000000000000000 P
   0.5000000000000000    0.0000000000000000    0.5000000000000000 P
   0.0000000000000000    0.5000000000000000    0.5000000000000000 P
   0.2500000000000000    0.2500000000000000    0.0000000000000000 P
   0.3750000000000001    0.6250000000000000    0.7500000000000000 P
   0.3750000000000000    0.1250000000000000    0.7500000000000000 P
   0.3750000000000000    0.6250000000000000    0.2500000000000000 P
   0.8750000000000000    0.1250000000000000    0.7500000000000000 P
   0.3750000000000000    0.1250000000000000    0.2500000000000000 P
   0.8750000000000000    0.6250000000000000    0.7500000000000000 P
   0.8750000000000000    0.1250000000000000    0.2500000000000001 P
   0.8750000000000000    0.6250000000000000    0.2500000000000000 P
   0.6250000000000000    0.8610490000000000    0.7360490000000001 P
   0.6110490000000000    0.3750000000000000    0.7360490000000000 P
   0.6389509999999999    0.8750000000000000    0.2639510000000000 P
   0.1250000000000001    0.8889510000000000    0.2639510000000000 P
   0.1250000000000000    0.3889510000000000    0.7639510000000000 P
   0.1389510000000001    0.8750000000000000    0.7639510000000000 P
   0.1110490000000000    0.3750000000000000    0.2360490000000000 P
   0.6249999999999999    0.3610490000000000    0.2360490000000000 P
   0.0070840000000000    0.0070840000000000    0.5141670000000000 P
   0.7570840000000000    0.7429160000000000    0.5000000000000000 P
   0.2429160000000000    0.2570840000000000    0.5000000000000000 P
   0.4929160000000001    0.4929160000000000    0.4858330000000000 P
   0.7429160000000001    0.2429160000000000    0.9858330000000001 P
   0.9929160000000000    0.5070840000000000    0.0000000000000000 P
   0.5070840000000000    0.9929160000000000   -0.0000000000000000 P
   0.2570839999999999    0.7570840000000000    0.0141670000000000 P
