Dy5 S7
1.0
   1.9074590000000000    6.4265639999999999    0.0000000000000000
  -1.9074590000000000    6.4265639999999999    0.0000000000000000
   0.0000000000000000    2.9250110000000000   11.2393230000000006
Dy S
5 7
direct
   0.0000000000000000    0.0000000000000000    0.0000000000000000 Dy
   0.1121540000000000    0.1121540000000000    0.5788000000000001 Dy
   0.8878460000000000    0.8878460000000000    0.4212000000000000 Dy
   0.3006890000000000    0.3006890000000000    0.8121790000000001 Dy
   0.6993109999999999    0.6993109999999999    0.1878210000000000 Dy
   0.5000000000000000    0.5000000000000000    0.5000000000000000 S
   0.6592549999999999    0.6592549999999999    0.9491680000000001 S
   0.3407450000000001    0.3407450000000001    0.0508320000000000 S
   0.9587769999999999    0.9587769999999999    0.7849170000000000 S
   0.0412230000000000    0.0412230000000000    0.2150830000000000 S
   0.2592100000000000    0.2592100000000000    0.3520530000000001 S
   0.7407899999999999    0.7407899999999999    0.6479470000000002 S
