N4 O4
1.0
   3.5542760000000002    0.0000000000000000    0.0000000000000000
   0.0000000000000000    4.5889300000000004    0.0000000000000000
   0.0000000000000000    0.0000000000000000    7.5952270000000004
N O
4 4
direct
   0.5358670000000000    0.4884710000000000    0.3871030000000000 N
   0.9641330000000000    0.5115290000000000    0.8871030000000000 N
   0.4641330000000000    0.9884710000000000    0.1128970000000000 N
   0.0358670000000000    0.0115290000000000    0.6128970000000000 N
   0.7495079999999998    0.5127820000000000    0.7709660000000000 O
   0.7504919999999999    0.4872180000000000    0.2709660000000000 O
   0.2504920000000000    0.0127820000000000    0.7290340000000000 O
   0.2495080000000000    0.9872180000000002    0.2290340000000000 O
