Bi3 Pd5
1.0
   2.1299359999999998   -3.6891579999999999    0.0000000000000000
   2.1299359999999998    3.6891579999999999    0.0000000000000000
   0.0000000000000000    0.0000000000000000   11.1880729999999993
Bi Pd
3 5
direct
   0.0000000000000000    0.0000000000000000    0.0000000000000000 Bi
   0.3333330000000000    0.6666670000000000    0.7254989999999999 Bi
   0.3333330000000000    0.6666670000000000    0.2745010000000000 Bi
   0.6666670000000000    0.3333330000000000    0.6178580000000000 Pd
   0.6666670000000000    0.3333330000000000    0.1292180000000000 Pd
   0.6666670000000000    0.3333330000000000    0.8707819999999999 Pd
   0.6666670000000000    0.3333330000000000    0.3821420000000000 Pd
   0.0000000000000000    0.0000000000000000    0.5000000000000000 Pd
