Mg2 In4
1.0
   1.7727520000000001   -8.1249400000000005    0.0000000000000000
   1.7727520000000001    8.1249400000000005    0.0000000000000000
   0.0000000000000000    0.0000000000000000    5.3699320000000004
Mg In
2 4
direct
   0.2198390000000000    0.7801610000000000    0.4999999999999999 Mg
   0.8906140000000001    0.1093859999999999    0.4999999999999999 Mg
   0.0013440000000000    0.9986560000000000    0.0000000000000000 In
   0.6669130000000000    0.3330870000000000    0.0000000000000000 In
   0.3332030000000000    0.6667970000000000    0.0000000000000000 In
   0.5547440000000000    0.4452560000000000    0.4999999999999999 In
