Er4 B16
1.0
   7.0697279999999996    0.0000000000000000    0.0000000000000000
   0.0000000000000000    7.0697279999999996    0.0000000000000000
   0.0000000000000000    0.0000000000000000    3.9970789999999998
Er B
4 16
direct
   0.1817930000000000    0.6817930000000000    0.0000000000000000 Er
   0.6817930000000000    0.8182069999999999    0.0000000000000000 Er
   0.3182070000000000    0.1817930000000000    0.0000000000000000 Er
   0.8182069999999999    0.3182070000000000    0.0000000000000000 Er
   0.3234830000000000    0.4612820000000000    0.4999999999999999 B
   0.6765169999999999    0.5387180000000000    0.4999999999999999 B
   0.5387180000000000    0.3234830000000000    0.4999999999999999 B
   0.4612820000000000    0.6765169999999999    0.4999999999999999 B
   0.0000000000000000    0.0000000000000000    0.2026320000000000 B
   0.5000000000000000    0.5000000000000000    0.7973679999999999 B
   0.0000000000000000    0.0000000000000000    0.7973679999999999 B
   0.5000000000000000    0.5000000000000000    0.2026320000000000 B
   0.5869030000000000    0.0869030000000000    0.4999999999999999 B
   0.0869030000000000    0.4130970000000000    0.4999999999999999 B
   0.9130970000000000    0.5869030000000000    0.4999999999999999 B
   0.4130970000000000    0.9130970000000000    0.4999999999999999 B
   0.0387180000000000    0.1765170000000000    0.4999999999999999 B
   0.1765170000000000    0.9612820000000000    0.4999999999999999 B
   0.8234830000000000    0.0387180000000000    0.4999999999999999 B
   0.9612820000000000    0.8234830000000000    0.4999999999999999 B
