Hf8 Bi16
1.0
   4.0514270000000003    0.0000000000000000    0.0000000000000000
   0.0000000000000000   10.2978419999999993    0.0000000000000000
   0.0000000000000000    0.0000000000000000   15.7884820000000001
Hf Bi
8 16
direct
   0.0000000000000000    0.8407319999999999    0.4957540000000000 Hf
   0.0000000000000000    0.1592680000000000    0.5042460000000000 Hf
   0.5000000000000000    0.6592680000000000    0.9957540000000000 Hf
   0.5000000000000000    0.3407319999999999    0.0042460000000000 Hf
   0.5000000000000000    0.5218260000000000    0.2529530000000000 Hf
   0.5000000000000000    0.4781739999999999    0.7470470000000000 Hf
   0.0000000000000000    0.9781739999999999    0.7529530000000000 Hf
   0.0000000000000000    0.0218260000000000    0.2470470000000000 Hf
   0.5000000000000000    0.6244510000000000    0.4436030000000000 Bi
   0.5000000000000000    0.3755490000000000    0.5563970000000000 Bi
   0.0000000000000000    0.8755489999999999    0.9436029999999999 Bi
   0.0000000000000000    0.1244510000000000    0.0563970000000000 Bi
   0.5000000000000000    0.8448559999999999    0.1493440000000000 Bi
   0.5000000000000000    0.1551440000000000    0.8506560000000000 Bi
   0.0000000000000000    0.6551439999999999    0.6493440000000000 Bi
   0.0000000000000000    0.3448560000000000    0.3506560000000000 Bi
   0.0000000000000000    0.7356130000000000    0.3002120000000000 Bi
   0.0000000000000000    0.2643870000000000    0.6997880000000000 Bi
   0.5000000000000000    0.7643869999999999    0.8002119999999999 Bi
   0.5000000000000000    0.2356130000000000    0.1997880000000000 Bi
   0.0000000000000000    0.5128029999999999    0.1075510000000000 Bi
   0.0000000000000000    0.4871970000000000    0.8924490000000000 Bi
   0.5000000000000000    0.9871970000000000    0.6075510000000000 Bi
   0.5000000000000000    0.0128030000000000    0.3924490000000000 Bi
