Pr8 Al4
1.0
   5.3108449999999996    0.0000000000000000    0.0000000000000000
   0.0000000000000000    6.8201729999999996    0.0000000000000000
   0.0000000000000000    0.0000000000000000    9.9251539999999991
Pr Al
8 4
direct
   0.2500000000000000    0.8061640000000000    0.9229320000000000 Pr
   0.2500000000000000    0.3061640000000000    0.5770680000000000 Pr
   0.7500000000000000    0.1938360000000000    0.0770680000000000 Pr
   0.7500000000000000    0.6938360000000000    0.4229320000000000 Pr
   0.2500000000000000    0.9772800000000000    0.2980140000000000 Pr
   0.2500000000000000    0.4772800000000000    0.2019860000000000 Pr
   0.7500000000000000    0.0227200000000000    0.7019860000000001 Pr
   0.7500000000000000    0.5227200000000000    0.7980140000000000 Pr
   0.2500000000000000    0.2891070000000000    0.8980220000000000 Al
   0.2500000000000000    0.7891070000000000    0.6019780000000000 Al
   0.7500000000000000    0.7108930000000000    0.1019780000000000 Al
   0.7500000000000000    0.2108930000000000    0.3980220000000000 Al
