Ba50 O50
1.0
  13.6347804400000001    0.1693839900000000    0.2809054300000000
   0.1607001300000000   14.3616346499999992    0.4846280800000000
   0.3042461600000000    0.4477207500000000   13.1411702500000001
Ba O
50 50
direct
   0.4634861600000000    0.4014193700000001    0.5861576300000000 Ba
   0.9626301000000002    0.8868674300000001    0.3867266000000000 Ba
   0.9154595400000000    0.0542051500000000    0.1723351100000000 Ba
   0.1515630200000000    0.0687939500000000    0.0192815800000000 Ba
   0.3279644400000000    0.2021199200000000    0.1240458500000000 Ba
   0.7682886300000000    0.0407617500000000    0.5527252000000000 Ba
   0.8035460600000002    0.6251484100000001    0.5990396000000000 Ba
   0.7970023200000000    0.7457757699999999    0.2701742100000000 Ba
   0.0484017800000000    0.6505163100000001    0.8399411300000001 Ba
   0.0903848100000000    0.0295612100000000    0.5913095900000001 Ba
   0.3785818600000000    0.6054572300000001    0.0852729000000000 Ba
   0.4158720200000001    0.0538549000000000    0.5256735800000000 Ba
   0.3010406000000000    0.8418710099999999    0.7457948500000001 Ba
   0.9213132900000000    0.2849225600000000    0.0629487000000000 Ba
   0.7215670900000000    0.4090258000000000    0.5444404400000000 Ba
   0.4748382600000001    0.3259577799999999    0.2691862900000000 Ba
   0.1447117700000000    0.3892641500000000    0.9815737300000001 Ba
   0.3018365600000000    0.7687093500000000    0.4152400700000000 Ba
   0.0924902800000000    0.3119786600000001    0.2619711600000000 Ba
   0.7243535100000001    0.2335365100000000    0.3381601900000000 Ba
   0.7309928400000000    0.4027062600000000    0.8386289900000001 Ba
   0.7409337700000002    0.9417257000000001    0.0046883600000000 Ba
   0.6008552700000001    0.9906742000000001    0.2604868000000000 Ba
   0.2163303900000000    0.5408840800000001    0.5939441500000000 Ba
   0.8330558100000001    0.6388083000000001    0.0307210100000000 Ba
   0.5575010700000000    0.9081249600000002    0.7020369000000000 Ba
   0.0154352000000000    0.9072848400000000    0.8740641200000001 Ba
   0.0077392400000000    0.5844745000000001    0.3705102200000000 Ba
   0.9374158500000001    0.2772026300000001    0.4880103400000000 Ba
   0.4437330400000000    0.0507400900000000    0.9280534600000001 Ba
   0.4042454900000000    0.8665111900000000    0.1409942200000000 Ba
   0.1049652700000000    0.7771873300000000    0.1496402200000000 Ba
   0.1981174100000000    0.0229541300000000    0.3083084500000000 Ba
   0.4338731300000000    0.3348658000000000    0.8830327900000000 Ba
   0.6143213100000000    0.7016757500000002    0.8720671800000001 Ba
   0.6269641200000001    0.1980894000000000    0.0555387100000000 Ba
   0.8153693600000002    0.8394278200000002    0.7284228400000000 Ba
   0.0637464400000000    0.7624921200000000    0.5743271599999999 Ba
   0.2501825000000000    0.2678380300000000    0.4810890000000000 Ba
   0.2941183200000000    0.5864501200000001    0.8390382700000001 Ba
   0.8312671800000001    0.4574673700000000    0.2484869700000000 Ba
   0.2766621300000000    0.5346357800000001    0.3314942400000000 Ba
   0.9231143200000000    0.1514931100000000    0.8012925500000000 Ba
   0.5725302299999999    0.5678558300000000    0.3424456200000000 Ba
   0.6178144000000000    0.4622695700000001    0.0942182300000000 Ba
   0.4839569600000000    0.6365765099999999    0.6349483699999999 Ba
   0.2644251800000000    0.1431236400000000    0.7416788900000000 Ba
   0.0111707200000000    0.3905603800000000    0.7153730200000001 Ba
   0.5712874700000000    0.8130932400000003    0.4650481300000000 Ba
   0.5888980399999999    0.1818019700000000    0.6949515100000001 Ba
   0.7741780300000001    0.7882330500000001    0.9326425800000000 O
   0.3039158000000000    0.0183539000000000    0.1276593200000000 O
   0.4686367000000000    0.8576203000000000    0.3136099300000000 O
   0.3819537000000000    0.5826230900000001    0.4753880200000001 O
   0.9603805099999999    0.2967013600000001    0.8745446099999999 O
   0.4080191400000000    0.0196707400000000    0.7320129200000001 O
   0.9313369100000001    0.7032615000000000    0.7100419900000000 O
   0.1528820200000001    0.6541529900000000    0.4488445900000000 O
   0.5826746200000001    0.1658943000000000    0.2507666900000001 O
   0.4089193200000000    0.2282679600000000    0.5908260600000000 O
   0.5940147099999998    0.3578198700000000    0.7115800900000001 O
   0.6012476000000001    0.9753641700000000    0.5059541000000000 O
   0.0591841600000000    0.9572059100000000    0.2049536000000000 O
   0.1507848000000000    0.9959911400000002    0.7798593500000000 O
   0.2936991400000000    0.4819624500000000    0.0013303000000000 O
   0.5480413799999999    0.1851515500000000    0.8821430300000001 O
   0.3768293799999999    0.4858870300000001    0.7168425600000000 O
   0.6652200399999999    0.7500798300000000    0.6833401500000000 O
   0.4219137600000001    0.8178901700000001    0.5783204300000000 O
   0.9275979900000001    0.9377174200000001    0.5712012900000000 O
   0.3028617300000000    0.1883542600000000    0.9192138100000001 O
   0.7443482200000000    0.3341502500000000    0.0605784500000000 O
   0.7086224100000001    0.0086966600000000    0.7334595599999999 O
   0.2846261800000000    0.7109229600000000    0.2031900800000000 O
   0.1849885500000000    0.7055221200000003    0.7096933800000000 O
   0.1321274400000000    0.2114941400000000    0.1138398700000000 O
   0.0033126300000000    0.4194377900000001    0.1347685400000000 O
   0.4471629200000001    0.5066691800000001    0.2271213900000000 O
   0.4266505400000001    0.7275379199999999    0.8425840800000000 O
   0.4940026300000000    0.3173703300000000    0.0697046700000000 O
   0.8842768700000001    0.4467530800000001    0.4253726200000000 O
   0.8372546600000002    0.4504375900000001    0.6863322700000000 O
   0.0348582300000000    0.2023944100000000    0.6441049799999999 O
   0.0964664000000000    0.7806576500000001    0.9617666000000001 O
   0.6854740199999999    0.5488444899999999    0.9329388000000001 O
   0.7593079100000000    0.2208222300000000    0.5339451400000000 O
   0.2379332500000000    0.0917923900000000    0.4846997000000001 O
   0.1404427100000000    0.8927270500000001    0.4364780100000000 O
   0.9326263700000000    0.0452674900000000    0.9742760100000000 O
   0.5630447000000001    0.9680019900000000    0.0653556400000000 O
   0.8957963500000000    0.7194140999999999    0.4372637200000001 O
   0.2905858800000000    0.2802465800000000    0.2933701899999999 O
   0.6266387300000000    0.5728094800000001    0.5264104800000000 O
   0.9452118200000001    0.6822011800000000    0.1918007700000000 O
   0.7819120000000001    0.9333124000000000    0.2119453400000000 O
   0.9193335000000000    0.2190391600000000    0.3005583400000000 O
   0.7180049800000000    0.6037210600000001    0.1894590000000000 O
   0.1233529200000000    0.4900910700000002    0.8118201699999998 O
   0.6496723700000001    0.3985479500000000    0.3308711799999999 O
   0.1591398100000000    0.4284374900000000    0.4553024400000000 O
