Co4 C2
1.0
   2.8747609999999999    0.0000000000000000    0.0000000000000000
   0.0000000000000000    4.3628859999999996    0.0000000000000000
   0.0000000000000000    0.0000000000000000    4.3785020000000001
Co C
4 2
direct
   0.0000000000000000    0.7409289999999999    0.6513600000000001 Co
   0.0000000000000000    0.2590710000000000    0.3486400000000000 Co
   0.4999999999999999    0.2409290000000000    0.8486399999999999 Co
   0.4999999999999999    0.7590710000000001    0.1513600000000000 Co
   0.0000000000000000    0.0000000000000000    0.0000000000000000 C
   0.4999999999999999    0.5000000000000000    0.5000000000000000 C
