Gd3 Y1
1.0
   5.0451990000000002    0.0000000000000000    0.0000000000000000
   0.0000000000000000    5.0451990000000002    0.0000000000000000
   0.0000000000000000    0.0000000000000000    5.0451990000000002
Gd Y
3 1
direct
   0.0000000000000000    0.4999999999999999    0.4999999999999999 Gd
   0.4999999999999999    0.0000000000000000    0.4999999999999999 Gd
   0.4999999999999999    0.4999999999999999    0.0000000000000000 Gd
   0.0000000000000000    0.0000000000000000    0.0000000000000000 Y
