I8 O16
1.0
   7.0119949999999998    0.0000000000000000    0.0000000000000000
   0.0000000000000000    8.1484710000000007    0.0000000000000000
   0.0000000000000000    3.7831999999999999    7.4258540000000002
I O
8 16
direct
   0.1208850000000000    0.1405070000000000    0.6843270000000001 I
   0.6208850000000001    0.8594929999999998    0.8156730000000000 I
   0.8791150000000001    0.8594930000000001    0.3156730000000000 I
   0.3791150000000000    0.1405070000000000    0.1843270000000000 I
   0.2577510000000001    0.6946450000000000    0.1475750000000000 I
   0.7577510000000001    0.3053550000000000    0.3524250000000000 I
   0.7422490000000002    0.3053550000000000    0.8524250000000000 I
   0.2422490000000000    0.6946450000000000    0.6475750000000000 I
   0.2563760000000000    0.9473819999999999    0.5123500000000000 O
   0.7563760000000000    0.0526180000000000    0.9876500000000001 O
   0.7436240000000001    0.0526180000000000    0.4876500000000000 O
   0.2436240000000000    0.9473819999999999    0.0123500000000000 O
   0.3481070000000001    0.6888470000000000    0.3539680000000000 O
   0.8481070000000002    0.3111530000000001    0.1460320000000000 O
   0.6518930000000001    0.3111530000000000    0.6460320000000001 O
   0.1518930000000000    0.6888470000000000    0.8539679999999999 O
   0.0441830000000000    0.3009340000000000    0.4377970000000000 O
   0.5441830000000001    0.6990660000000000    0.0622030000000000 O
   0.9558170000000000    0.6990659999999999    0.5622030000000000 O
   0.4558170000000000    0.3009340000000000    0.9377970000000001 O
   0.0392020000000000    0.3058940000000000    0.7797680000000000 O
   0.5392020000000001    0.6941060000000000    0.7202320000000000 O
   0.9607980000000002    0.6941060000000000    0.2202320000000000 O
   0.4607980000000000    0.3058940000000000    0.2797680000000000 O
