Tl6 S1
1.0
   3.2857530000000001   -5.6910910000000001    0.0000000000000000
   3.2857530000000001    5.6910910000000001    0.0000000000000000
   0.0000000000000000    0.0000000000000000    6.0096150000000002
Tl S
6 1
direct
   0.3501220000000000    0.3501220000000000    0.9922189999999999 Tl
   0.6150080000000000    0.6150080000000000    0.4764119999999999 Tl
   0.3849920000000000    0.0000000000000000    0.4764119999999999 Tl
   0.0000000000000001    0.6498780000000000    0.9922189999999999 Tl
   0.0000000000000000    0.3849920000000000    0.4764119999999999 Tl
   0.6498780000000000    0.0000000000000001    0.9922189999999999 Tl
   0.0000000000000000    0.0000000000000000    0.6968380000000000 S
