Ba2 Sn2
1.0
   2.6868590000000001   -6.3879339999999996    0.0000000000000000
   2.6868590000000001    6.3879339999999996    0.0000000000000000
   0.0000000000000000    0.0000000000000000    4.7249260000000000
Ba Sn
2 2
direct
   0.1357009999999999    0.8642990000000000    0.2500000000000000 Ba
   0.8642990000000000    0.1357009999999999    0.7500000000000000 Ba
   0.4270400000000000    0.5729600000000000    0.2500000000000000 Sn
   0.5729600000000000    0.4270400000000000    0.7500000000000000 Sn
