Ni6 Sn2
1.0
   2.6523789999999998   -4.5940550000000000    0.0000000000000000
   2.6523789999999998    4.5940550000000000    0.0000000000000000
   0.0000000000000000    0.0000000000000000    4.2416330000000002
Ni Sn
6 2
direct
   0.8403830000000000    0.6807670000000000    0.2500000000000000 Ni
   0.1596170000000000    0.8403830000000000    0.7500000000000000 Ni
   0.6807670000000000    0.8403830000000000    0.7500000000000000 Ni
   0.3192330000000000    0.1596170000000000    0.2500000000000000 Ni
   0.8403830000000000    0.1596170000000000    0.2500000000000000 Ni
   0.1596170000000000    0.3192330000000000    0.7500000000000000 Ni
   0.3333330000000000    0.6666670000000000    0.2500000000000000 Sn
   0.6666670000000000    0.3333330000000000    0.7500000000000000 Sn
