Sn3 Te1
1.0
  -2.3009040000000001    2.3009040000000001    5.5164939999999998
   2.3009040000000001   -2.3009040000000001    5.5164939999999998
   2.3009040000000001    2.3009040000000001   -5.5164939999999998
Sn Te
3 1
direct
   0.7500000000000000    0.2500000000000000    0.5000000000000000 Sn
   0.2500000000000000    0.7500000000000000    0.5000000000000000 Sn
   0.5000000000000000    0.5000000000000000    0.0000000000000000 Sn
   0.0000000000000000    0.0000000000000000    0.0000000000000000 Te
