Be1 Ga3
1.0
  -2.0436200000000002    2.0436200000000002    3.7906849999999999
   2.0436200000000002   -2.0436200000000002    3.7906849999999999
   2.0436200000000002    2.0436200000000002   -3.7906849999999999
Be Ga
1 3
direct
   0.0000000000000000    0.0000000000000000    0.0000000000000000 Be
   0.7499999999999999    0.2500000000000001    0.4999999999999999 Ga
   0.2500000000000001    0.7499999999999999    0.4999999999999999 Ga
   0.5000000000000000    0.5000000000000000    0.0000000000000000 Ga
