Be12 O24
1.0
   5.0581639999999997    0.0000000000000000    0.0000000000000000
   0.0000000000000000    8.3735529999999994    0.0000000000000000
   0.0000000000000000    1.6309940000000001   10.4874489999999998
Be O
12 24
direct
   0.3008640000000000    0.5128639999999999    0.4208250000000000 Be
   0.8008639999999999    0.4871360000000001    0.5791750000000000 Be
   0.5220140000000000    0.7150150000000000    0.1715420000000000 Be
   0.0220140000000000    0.2849849999999999    0.8284580000000000 Be
   0.0273020000000000    0.9085770000000000    0.1757170000000000 Be
   0.5273020000000000    0.0914230000000000    0.8242830000000000 Be
   0.2926130000000000    0.9848200000000000    0.5789860000000000 Be
   0.7926130000000001    0.0151800000000000    0.4210140000000000 Be
   0.2298160000000000    0.4185990000000000    0.1524380000000000 Be
   0.7298160000000000    0.5814010000000001    0.8475619999999999 Be
   0.2382350000000000    0.7668460000000000    0.8427110000000000 Be
   0.7382350000000000    0.2331540000000000    0.1572890000000000 Be
   0.3141220000000000    0.8557460000000000    0.1411770000000000 O
   0.8141219999999999    0.1442540000000000    0.8588229999999999 O
   0.2483600000000000    0.8319000000000000    0.6908830000000000 O
   0.7483600000000000    0.1681000000000000    0.3091170000000000 O
   0.5219910000000000    0.9539769999999999    0.4843839999999999 O
   0.0219910000000000    0.0460230000000000    0.5156160000000000 O
   0.3860740000000000    0.9223139999999999    0.8822970000000000 O
   0.8860740000000000    0.0776860000000000    0.1177030000000000 O
   0.9412169999999999    0.3730260000000000    0.1085130000000000 O
   0.4412170000000000    0.6269740000000000    0.8914870000000000 O
   0.2348860000000000    0.4140450000000000    0.3056900000000000 O
   0.7348860000000000    0.5859550000000000    0.6943099999999999 O
   0.5344010000000000    0.4488670000000000    0.5127969999999999 O
   0.0344010000000000    0.5511330000000000    0.4872030000000000 O
   0.4411600000000000    0.2867810000000000    0.1294070000000000 O
   0.9411600000000000    0.7132190000000000    0.8705929999999998 O
   0.8145800000000000    0.7807110000000000    0.1507760000000000 O
   0.3145800000000000    0.2192890000000000    0.8492240000000000 O
   0.3946010000000000    0.5797880000000000    0.0958030000000000 O
   0.8946009999999999    0.4202120000000000    0.9041970000000000 O
   0.9474680000000000    0.9169400000000000    0.3222350000000000 O
   0.4474680000000000    0.0830600000000000    0.6777650000000000 O
   0.4422960000000000    0.6493059999999999    0.3182829999999999 O
   0.9422960000000001    0.3506940000000001    0.6817170000000000 O
