Cr15 S24
1.0
  -8.8704169999999998    0.0000000000000000    0.0000000000000000
  -0.8355480000000000   -8.8326410000000006    0.0000000000000000
   4.0190429999999999    3.6614209999999998    8.8041000000000000
Cr S
15 24
direct
   0.2533920000000000    0.2482100000000000    0.0018860000000000 Cr
   0.7477810000000001    0.7473800000000000    0.6638710000000000 Cr
   0.7466080000000000    0.7517900000000000    0.9981139999999999 Cr
   0.2522190000000001    0.2526200000000000    0.3361290000000000 Cr
   0.0000000000000000    0.5000000000000000    0.5000000000000000 Cr
   0.7500620000000001    0.2514110000000001    0.9985490000000000 Cr
   0.2699250000000000    0.2609420000000000    0.6739160000000000 Cr
   0.4884480000000000    0.9799450000000001    0.8244200000000002 Cr
   0.5115520000000001    0.0200550000000000    0.1755800000000000 Cr
   0.7300750000000000    0.7390580000000000    0.3260840000000000 Cr
   0.5000000000000001    0.0000000000000000    0.5000000000000000 Cr
   0.2499380000000000    0.7485889999999999    0.0014510000000000 Cr
   0.9841730000000000    0.4843530000000001    0.8175940000000002 Cr
   0.0158270000000000    0.5156470000000001    0.1824060000000000 Cr
   0.0000000000000000    0.0000000000000000    0.5000000000000000 Cr
   0.5538050000000000    0.7098740000000000    0.7537330000000000 S
   0.2047130000000000    0.5317730000000002    0.4160200000000001 S
   0.0435130000000000    0.2214050000000000    0.0865830000000000 S
   0.7997320000000000    0.4601400000000000    0.2499620000000000 S
   0.0506150000000000    0.2137960000000000    0.4279700000000000 S
   0.7033830000000000    0.0388490000000000    0.0739900000000000 S
   0.0518620000000000    0.2079450000000000    0.7493780000000000 S
   0.7077140000000001    0.0336100000000000    0.4157760000000000 S
   0.2966170000000001    0.9611510000000000    0.9260100000000001 S
   0.5415110000000000    0.7185730000000000    0.0836470000000000 S
   0.9493850000000001    0.7862040000000000    0.5720300000000000 S
   0.3031260000000000    0.9613070000000000    0.2500720000000000 S
   0.2002680000000001    0.5398600000000000    0.7500380000000000 S
   0.5466350000000001    0.7162640000000000    0.4263980000000001 S
   0.9564870000000001    0.7785950000000001    0.9134170000000001 S
   0.2026340000000000    0.5352610000000000    0.0739890000000000 S
   0.7952869999999999    0.4682270000000001    0.5839800000000001 S
   0.4461950000000001    0.2901260000000000    0.2462670000000000 S
   0.7973660000000001    0.4647390000000001    0.9260110000000001 S
   0.4533650000000001    0.2837360000000000    0.5736020000000001 S
   0.6968740000000000    0.0386930000000000    0.7499280000000000 S
   0.4584890000000000    0.2814270000000000    0.9163530000000000 S
   0.2922860000000000    0.9663900000000001    0.5842240000000001 S
   0.9481380000000000    0.7920549999999998    0.2506220000000001 S
