Bi4 O8
1.0
  -3.3219799999999999    3.6687949999999998    4.9771549999999998
   3.3219799999999999   -3.6687949999999998    4.9771549999999998
   3.3219799999999999    3.6687949999999998   -4.9771549999999998
Bi O
4 8
direct
  -0.0000000000000000    0.0000000000000000    0.5000000000000000 Bi
   0.5000000000000000    0.0000000000000000    0.5000000000000000 Bi
  -0.0000000000000000    0.5000000000000000    0.0000000000000000 Bi
   0.0000000000000000    0.0000000000000000    0.0000000000000000 Bi
   0.2050299999999999    0.7576090000000000    0.4474200000000000 O
   0.2123990000000000    0.1915420000000000    0.4791430000000000 O
   0.2123990000000000    0.7332550000000000    0.0208570000000000 O
   0.8101889999999999    0.7576089999999999    0.0525800000000000 O
   0.1898110000000000    0.2423910000000000    0.9474200000000000 O
   0.7876009999999999    0.2667450000000000    0.9791430000000000 O
   0.7876009999999999    0.8084579999999999    0.5208570000000000 O
   0.7949700000000000    0.2423910000000001    0.5525800000000000 O
