Mg2 Ag4
1.0
   2.5786970000000000    4.3613860000000004    0.0000000000000000
  -2.5786970000000000    4.3613860000000004    0.0000000000000000
   0.0000000000000000    3.6750470000000002    4.8832490000000002
Mg Ag
2 4
direct
   0.8940850000000000    0.1059149999999999    0.7500000000000001 Mg
   0.1059149999999999    0.8940850000000000    0.2500000000000000 Mg
   0.5714730000000000    0.7653340000000000    0.7456880000000001 Ag
   0.4285269999999999    0.2346659999999999    0.2543120000000000 Ag
   0.7653340000000000    0.5714730000000000    0.2456880000000000 Ag
   0.2346660000000000    0.4285270000000000    0.7543120000000000 Ag
