Tb2 Cl2
1.0
   9.6847379999999994   -1.8850100000000001    0.0000000000000000
   9.6847379999999994    1.8850100000000001    0.0000000000000000
   9.3178450000000002    0.0000000000000000    3.2442530000000001
Tb Cl
2 2
direct
   0.2153650000000000    0.2153649999999999    0.2153650000000000 Tb
   0.7846349999999999    0.7846349999999997    0.7846349999999999 Tb
   0.3910350000000000    0.3910350000000000    0.3910350000000000 Cl
   0.6089650000000001    0.6089650000000000    0.6089650000000000 Cl
