Ho2 Au6
1.0
   5.0439590000000001    0.0000000000000000    0.0000000000000000
   0.0000000000000000    5.1682249999999996    0.0000000000000000
   0.0000000000000000    0.0000000000000000    6.1758610000000003
Ho Au
2 6
direct
   0.5000000000000000    0.6556189999999998    0.4999999999999999 Ho
   0.0000000000000000    0.3443810000000000    0.0000000000000000 Ho
   0.0000000000000000    0.8389519999999999    0.2557770000000000 Au
   0.5000000000000000    0.1610480000000000    0.2442230000000000 Au
   0.0000000000000000    0.8389519999999999    0.7442230000000000 Au
   0.5000000000000000    0.1610480000000000    0.7557770000000000 Au
   0.0000000000000000    0.3350950000000000    0.4999999999999999 Au
   0.5000000000000000    0.6649049999999999    0.0000000000000000 Au
