Hf4 As4
1.0
   1.9003450000000000   -3.2914949999999998    0.0000000000000000
   1.9003450000000000    3.2914949999999998    0.0000000000000000
   0.0000000000000000    0.0000000000000000   12.8051680000000001
Hf As
4 4
direct
   0.3333329999999999    0.6666670000000000    0.3833130000000000 Hf
   0.6666670000000000    0.3333329999999999    0.8833129999999999 Hf
   0.6666670000000000    0.3333329999999999    0.6166869999999999 Hf
   0.3333329999999999    0.6666670000000000    0.1166870000000000 Hf
   0.6666670000000000    0.3333329999999999    0.2500000000000000 As
   0.3333329999999999    0.6666670000000000    0.7499999999999999 As
   0.0000000000000000    0.0000000000000000    0.4999999999999999 As
   0.0000000000000000    0.0000000000000000    0.0000000000000000 As
