Y6 Tl10
1.0
   4.0696750000000002   -5.0956659999999996    0.0000000000000000
   4.0696750000000002    5.0956659999999996    0.0000000000000000
   0.0000000000000000    0.0000000000000000   10.5888449999999992
Y Tl
6 10
direct
   0.7953150000000000    0.2046850000000000    0.0000000000000000 Y
   0.2046850000000000    0.7953150000000000    0.0000000000000000 Y
   0.2046850000000000    0.7953150000000000    0.5000000000000000 Y
   0.7953150000000000    0.2046850000000000    0.5000000000000000 Y
   0.6218820000000000    0.6218820000000000    0.2500000000000000 Y
   0.3781180000000000    0.3781180000000000    0.7500000000000000 Y
   0.0698960000000000    0.5156990000000000    0.2500000000000000 Tl
   0.9301040000000000    0.4843010000000001    0.7500000000000000 Tl
   0.5156990000000000    0.0698960000000000    0.2500000000000000 Tl
   0.4843010000000001    0.9301040000000000    0.7500000000000000 Tl
   0.0076840000000000    0.0076840000000000    0.2500000000000000 Tl
   0.9923160000000000    0.9923160000000000    0.7500000000000000 Tl
   0.3044830000000000    0.3044830000000000    0.0395090000000000 Tl
   0.6955170000000001    0.6955170000000001    0.9604910000000000 Tl
   0.6955170000000001    0.6955170000000001    0.5395090000000000 Tl
   0.3044830000000000    0.3044830000000000    0.4604910000000000 Tl
