V16 O24
1.0
   5.1347560000000003    0.0000000000000000    0.0000000000000000
   0.0000000000000000    5.4701339999999998    0.0000000000000000
   0.0000000000000000    0.0000000000000000   15.0683410000000002
V O
16 24
direct
   0.0006480000000000    0.1838600000000000    0.0734360000000000 V
   0.9972150000000000    0.7492140000000002    0.1791950000000000 V
   0.0006480000000000    0.3161400000000000    0.5734359999999999 V
   0.9972150000000000    0.7507860000000000    0.6791950000000000 V
   0.5027850000000000    0.2492140000000000    0.1791950000000000 V
   0.5027850000000000    0.2507860000000000    0.6791950000000000 V
   0.4993520000000000    0.8161400000000000    0.5734359999999999 V
   0.4993520000000000    0.6838600000000000    0.0734360000000000 V
   0.5006480000000000    0.1838600000000000    0.4265639999999999 V
   0.5006480000000000    0.3161400000000000    0.9265639999999999 V
   0.4972150000000000    0.7492140000000002    0.3208050000000000 V
   0.4972150000000000    0.7507860000000000    0.8208049999999999 V
   0.9993519999999999    0.6838600000000000    0.4265639999999999 V
   0.0027850000000000    0.2492140000000000    0.3208050000000000 V
   0.0027850000000000    0.2507860000000000    0.8208049999999999 V
   0.9993519999999999    0.8161400000000000    0.9265639999999999 V
   0.1420130000000000    0.1159510000000000    0.2025300000000000 O
   0.1420130000000000    0.3840490000000000    0.7025300000000000 O
   0.1501270000000000    0.8362900000000000    0.0508770000000000 O
   0.1501270000000000    0.6637100000000000    0.5508770000000000 O
   0.1992180000000000    0.9669070000000000    0.3753639999999999 O
   0.1992180000000000    0.5330930000000000    0.8753639999999999 O
   0.3007820000000000    0.4669070000000000    0.3753639999999999 O
   0.3007820000000000    0.0330930000000000    0.8753639999999999 O
   0.3498730000000000    0.1637100000000000    0.5508770000000000 O
   0.3498730000000000    0.3362900000000000    0.0508770000000000 O
   0.3579870000000000    0.6159510000000000    0.2025300000000000 O
   0.3579870000000000    0.8840490000000000    0.7025300000000000 O
   0.6420129999999999    0.1159510000000000    0.2974700000000000 O
   0.6420129999999999    0.3840490000000000    0.7974699999999999 O
   0.6501270000000000    0.8362900000000000    0.4491230000000000 O
   0.6501270000000000    0.6637100000000000    0.9491229999999999 O
   0.6992180000000000    0.5330930000000000    0.6246360000000000 O
   0.6992180000000000    0.9669070000000000    0.1246360000000000 O
   0.8007820000000001    0.4669070000000000    0.1246360000000000 O
   0.8007820000000001    0.0330930000000000    0.6246360000000000 O
   0.8498730000000001    0.3362900000000000    0.4491230000000000 O
   0.8498730000000001    0.1637100000000000    0.9491229999999999 O
   0.8579870000000002    0.8840490000000000    0.7974699999999999 O
   0.8579870000000002    0.6159510000000000    0.2974700000000000 O
