W2 F8
1.0
   5.2014329999999998    0.0000000000000000    0.0000000000000000
  -0.0426310000000000    5.6423620000000003    0.0000000000000000
  -2.3033429999999999   -1.8058380000000001    5.6174379999999999
W F
2 8
direct
   0.9984020000000001    0.4959040000000000    0.9989639999999999 W
   0.5020460000000001    0.9985130000000001    0.0028550000000000 W
   0.1553070000000000    0.1646210000000000    0.8610710000000000 F
   0.3315430000000000    0.5063450000000000    0.2686020000000000 F
   0.8442860000000000    0.8287460000000000    0.1415890000000000 F
   0.7798840000000000    0.3344000000000000    0.1462320000000000 F
   0.6770220000000000    0.5026200000000000    0.7261580000000000 F
   0.5952460000000001    0.0089740000000000    0.7367180000000000 F
   0.2280000000000000    0.6621700000000000    0.8612270000000000 F
   0.4036170000000001    0.0028770000000000    0.2691140000000000 F
