Tl3 Zn1
1.0
   4.8009890000000004    0.0000000000000000    0.0000000000000000
   0.0000000000000000    4.8009890000000004    0.0000000000000000
   0.0000000000000000    0.0000000000000000    4.8009890000000004
Tl Zn
3 1
direct
   0.5000000000000000    0.0000000000000000    0.5000000000000000 Tl
   0.5000000000000000    0.5000000000000000    0.0000000000000000 Tl
   0.0000000000000000    0.5000000000000000    0.5000000000000000 Tl
   0.0000000000000000    0.0000000000000000    0.0000000000000000 Zn
