Lu6 Zn23
1.0
   0.0000000000000000    6.2830110000000001    6.2830110000000001
   6.2830110000000001    0.0000000000000000    6.2830110000000001
   6.2830110000000001    6.2830110000000001    0.0000000000000000
Lu Zn
6 23
direct
   0.7044750000000001    0.7044750000000001    0.2955249999999999 Lu
   0.2955250000000000    0.7044750000000001    0.2955250000000000 Lu
   0.7044750000000001    0.2955250000000000    0.2955250000000000 Lu
   0.2955250000000000    0.2955250000000000    0.7044750000000000 Lu
   0.7044750000000001    0.2955250000000000    0.7044750000000000 Lu
   0.2955250000000000    0.7044750000000001    0.7044750000000002 Lu
   0.0000000000000000    0.0000000000000000    0.0000000000000000 Zn
   0.0000000000000000   -0.0000000000000000    0.5000000000000000 Zn
   0.5000000000000001   -0.0000000000000000    0.5000000000000000 Zn
   0.0000000000000000    0.5000000000000000    0.5000000000000000 Zn
   0.5000000000000000    0.5000000000000000   -0.0000000000000000 Zn
   0.0000000000000000    0.5000000000000000   -0.0000000000000000 Zn
   0.5000000000000000    0.0000000000000000   -0.0000000000000000 Zn
   0.8783100000000000    0.8783100000000000    0.3650700000000001 Zn
   0.8783100000000000    0.3650700000000001    0.8783100000000001 Zn
   0.3650700000000001    0.8783100000000000    0.8783099999999999 Zn
   0.8783100000000000    0.8783100000000000    0.8783100000000000 Zn
   0.1216900000000000    0.1216900000000000    0.6349300000000001 Zn
   0.1216900000000000    0.6349300000000000    0.1216900000000000 Zn
   0.6349300000000000    0.1216900000000000    0.1216900000000000 Zn
   0.1216900000000000    0.1216900000000000    0.1216900000000000 Zn
   0.6708740000000000    0.6708740000000000    0.9873780000000001 Zn
   0.6708740000000000    0.9873780000000001    0.6708740000000000 Zn
   0.9873780000000001    0.6708740000000000    0.6708740000000000 Zn
   0.6708740000000000    0.6708740000000000    0.6708740000000000 Zn
   0.3291260000000000    0.3291260000000000    0.0126220000000000 Zn
   0.3291260000000000    0.0126220000000000    0.3291260000000000 Zn
   0.0126220000000000    0.3291260000000000    0.3291260000000000 Zn
   0.3291260000000000    0.3291260000000000    0.3291260000000000 Zn
