Be44 Re2
1.0
   0.0000000000000000    5.7490150000000000    5.7490150000000000
   5.7490150000000000    0.0000000000000000    5.7490150000000000
   5.7490150000000000    5.7490150000000000    0.0000000000000000
Be Re
44 2
direct
   0.1145940000000000    0.3854060000000000    0.3854060000000000 Be
   0.6814019999999997    0.9494170000000000    0.9494170000000000 Be
   0.9494169999999998    0.6814019999999998    0.9494170000000000 Be
   0.8302360000000002    0.5685980000000000    0.3005829999999999 Be
   0.6250000000000000    0.1250000000000000    0.1250000000000000 Be
   0.8645940000000000    0.1354060000000000    0.8645939999999999 Be
   0.1354060000000000    0.1354060000000000    0.8645940000000000 Be
   0.5685979999999999    0.3005830000000000    0.3005830000000000 Be
   0.1354060000000000    0.8645940000000000    0.1354060000000001 Be
   0.6250000000000000    0.1250000000000000    0.6250000000000000 Be
   0.9494169999999998    0.9494170000000000    0.4197640000000001 Be
   0.6814019999999998    0.4197640000000001    0.9494169999999998 Be
   0.1145940000000000    0.1145940000000000    0.3854060000000000 Be
   0.5685980000000000    0.3005829999999999    0.8302360000000001 Be
   0.3854060000000000    0.1145940000000000    0.1145940000000000 Be
   0.4197640000000000    0.6814020000000000    0.9494169999999998 Be
   0.9494169999999998    0.9494170000000000    0.6814019999999998 Be
   0.8645940000000000    0.8645940000000000    0.1354060000000001 Be
   0.5685980000000000    0.8302360000000001    0.3005829999999999 Be
   0.3005830000000000    0.3005830000000000    0.8302360000000001 Be
   0.3005830000000000    0.5685979999999999    0.3005830000000000 Be
   0.1250000000000000    0.1250000000000000    0.1250000000000000 Be
   0.6814019999999998    0.9494169999999998    0.4197640000000001 Be
   0.9494169999999998    0.4197640000000000    0.6814019999999997 Be
   0.3005830000000000    0.8302360000000001    0.3005829999999999 Be
   0.1250000000000000    0.6250000000000000    0.6250000000000000 Be
   0.3005829999999999    0.8302360000000002    0.5685980000000000 Be
   0.1354060000000000    0.8645940000000000    0.8645939999999999 Be
   0.4197639999999999    0.9494170000000000    0.9494169999999998 Be
   0.3854060000000000    0.3854060000000000    0.1145940000000000 Be
   0.6250000000000000    0.6250000000000000    0.6250000000000000 Be
   0.8645940000000000    0.1354060000000000    0.1354060000000001 Be
   0.8302360000000001    0.3005830000000000    0.3005830000000000 Be
   0.3005829999999999    0.5685980000000000    0.8302360000000001 Be
   0.9494169999999998    0.6814019999999998    0.4197640000000001 Be
   0.4197640000000000    0.9494169999999998    0.6814020000000000 Be
   0.3005830000000000    0.3005830000000000    0.5685979999999999 Be
   0.1250000000000000    0.1250000000000000    0.6250000000000000 Be
   0.8302360000000002    0.3005829999999999    0.5685980000000000 Be
   0.1145940000000000    0.3854060000000000    0.1145940000000000 Be
   0.9494169999999998    0.4197640000000000    0.9494169999999998 Be
   0.1250000000000000    0.6250000000000000    0.1250000000000000 Be
   0.3854060000000000    0.1145940000000000    0.3854060000000000 Be
   0.6250000000000000    0.6250000000000000    0.1250000000000000 Be
   0.7500000000000000    0.7500000000000000    0.7500000000000000 Re
   0.4999999999999999    0.5000000000000000    0.5000000000000000 Re
