Mo3 O8
1.0
   3.0793400000000002    5.1845410000000003    0.0000000000000000
  -3.0793400000000002    5.1845410000000003    0.0000000000000000
   0.0000000000000000    3.2928510000000002    5.0284440000000004
Mo O
3 8
direct
   0.4999999999999999   -0.0000000000000000    0.4999999999999999 Mo
   0.0000000000000000    0.0000000000000000    0.0000000000000000 Mo
  -0.0000000000000000    0.4999999999999999    0.4999999999999999 Mo
   0.1979260000000000    0.7598970000000000    0.2442960000000000 O
   0.2464690000000000    0.2464690000000000    0.3072160000000000 O
   0.7535309999999998    0.7535309999999998    0.6927840000000000 O
   0.8020740000000000    0.2401030000000000    0.7557040000000000 O
   0.7598970000000000    0.1979260000000000    0.2442960000000000 O
   0.2401030000000000    0.8020740000000000    0.7557040000000000 O
   0.2359990000000000    0.2359990000000000    0.7529679999999999 O
   0.7640010000000000    0.7640010000000000    0.2470320000000000 O
