Ca4 Mg2
1.0
   1.8753400000000000   -9.2924530000000001    0.0000000000000000
   1.8753400000000000    9.2924530000000001    0.0000000000000000
   0.0000000000000000    0.0000000000000000    5.9882030000000004
Ca Mg
4 2
direct
   0.4456780000000001    0.5543220000000000    0.2500000000000000 Ca
   0.7710610000000000    0.2289389999999999    0.2500000000000000 Ca
   0.2289389999999999    0.7710610000000000    0.7500000000000001 Ca
   0.5543220000000000    0.4456780000000001    0.7500000000000001 Ca
   0.1106870000000000    0.8893130000000000    0.2500000000000000 Mg
   0.8893130000000000    0.1106870000000000    0.7500000000000001 Mg
