Yb10 S18
1.0
   2.7926829999999998   10.3488439999999997    0.0000000000000000
  -2.7926829999999998   10.3488439999999997    0.0000000000000000
   0.0000000000000000    2.7364660000000001   11.7995400000000004
Yb S
10 18
direct
   0.5768750000000001    0.6193770000000000    0.9663300000000000 Yb
   0.1760170000000000    0.2230670000000000    0.7637139999999999 Yb
   0.9796430000000000    0.0201110000000000    0.1659590000000000 Yb
   0.7716209999999999    0.8280670000000000    0.5658339999999999 Yb
   0.3762060000000000    0.4203820000000000    0.3659970000000000 Yb
   0.9798889999999999    0.0203569999999999    0.8340410000000000 Yb
   0.5796179999999999    0.6237939999999998    0.6340029999999999 Yb
   0.3806229999999999    0.4231249999999999    0.0336700000000000 Yb
   0.1719330000000000    0.2283790000000000    0.4341660000000000 Yb
   0.7769330000000001    0.8239830000000001    0.2362860000000000 Yb
   0.6583730000000000    0.3416270000000000    0.5000000000000000 S
   0.2363610000000000    0.9724779999999998    0.2915700000000000 S
   0.0275220000000000    0.7636390000000000    0.7084300000000000 S
   0.6951659999999998    0.6912689999999999    0.1136800000000000 S
   0.3087310000000000    0.3048340000000000    0.8863199999999999 S
   0.9836299999999999    0.6678460000000002    0.8489749999999999 S
   0.3106490000000000    0.6893510000000000    0.5000000000000000 S
   0.3321539999999999    0.0163700000000000    0.1510250000000000 S
   0.8794290000000001    0.9214960000000002    0.0344190000000000 S
   0.0800100000000000    0.1236880000000000    0.6372830000000000 S
   0.2773630000000000    0.3229130000000000    0.2327440000000000 S
   0.4853839999999999    0.5226029999999999    0.8368900000000000 S
   0.6765470000000000    0.7299760000000001    0.4379330000000000 S
   0.4773970000000000    0.5146160000000001    0.1631100000000000 S
   0.6770870000000001    0.7226370000000000    0.7672559999999999 S
   0.8763120000000000    0.9199899999999999    0.3627170000000000 S
   0.0785040000000000    0.1205710000000000    0.9655810000000000 S
   0.2700239999999999    0.3234529999999999    0.5620670000000000 S
