Sr2 Mg4
1.0
   2.0007959999999998   -3.4654799999999999    0.0000000000000000
   2.0007959999999998    3.4654799999999999    0.0000000000000000
   0.0000000000000000    0.0000000000000000   15.0950229999999994
Sr Mg
2 4
direct
   0.3333330000000000    0.6666670000000000    0.6157500000000000 Sr
   0.6666670000000000    0.3333330000000000    0.3842500000000000 Sr
   0.3333330000000000    0.6666670000000000    0.9344270000000001 Mg
   0.6666670000000000    0.3333330000000000    0.7974599999999999 Mg
   0.3333330000000000    0.6666670000000000    0.2025400000000000 Mg
   0.6666670000000000    0.3333330000000000    0.0655730000000000 Mg
