Cs4 I12
1.0
   7.2265779999999999    0.0000000000000000    0.0000000000000000
   0.0000000000000000   10.4659049999999993    0.0000000000000000
   0.0000000000000000    0.0000000000000000   11.3180110000000003
Cs I
4 12
direct
   0.2500000000000000    0.4705800000000000    0.8228490000000002 Cs
   0.7500000000000000    0.5294200000000000    0.1771510000000000 Cs
   0.7500000000000000    0.9705800000000001    0.6771509999999999 Cs
   0.2500000000000000    0.0294200000000000    0.3228490000000000 Cs
   0.2500000000000000    0.3675280000000000    0.1682230000000000 I
   0.7500000000000000    0.6324720000000000    0.8317770000000001 I
   0.7500000000000000    0.8675280000000001    0.3317770000000000 I
   0.2500000000000000    0.1324720000000000    0.6682230000000000 I
   0.2500000000000000    0.5553320000000000    0.3702670000000000 I
   0.7500000000000000    0.4446680000000000    0.6297330000000000 I
   0.7500000000000000    0.0553320000000000    0.1297330000000000 I
   0.2500000000000000    0.9446680000000001    0.8702670000000000 I
   0.2500000000000000    0.7361520000000000    0.5647190000000000 I
   0.7500000000000000    0.2638480000000000    0.4352810000000000 I
   0.7500000000000000    0.2361520000000000    0.9352810000000000 I
   0.2500000000000000    0.7638480000000000    0.0647190000000000 I
