Mg14 Si8
1.0
   4.2607830000000000    0.0000000000000000    0.0000000000000000
  -0.0273500000000000    7.0375649999999998    0.0000000000000000
  -1.8400479999999999   -1.4229989999999999   15.1473870000000002
Mg Si
14 8
direct
   0.5910009999999999    0.8838760000000001    0.1189500000000000 Mg
   0.2301970000000000    0.6461780000000001    0.3915060000000000 Mg
   0.7956640000000000    0.5818920000000001    0.5357830000000000 Mg
   0.7132429999999998    0.2891740000000000    0.3334070000000000 Mg
   0.5894609999999999    0.3373930000000001    0.1339080000000000 Mg
   0.8930399999999999    0.7545450000000001    0.7331480000000000 Mg
   0.8422699999999999    0.2755490000000000    0.6730159999999998 Mg
   0.7587460000000000    0.9592590000000001    0.4472670000000000 Mg
   0.0541570000000000    0.5964610000000001    0.0376170000000000 Mg
   0.0365550000000000    0.0776950000000000    0.0117090000000000 Mg
   0.5076250000000000    0.3434210000000000    0.9307029999999999 Mg
   0.4944710000000000    0.7666350000000000    0.8977700000000000 Mg
   0.2812010000000000    0.2798390000000001    0.5019700000000000 Mg
   0.3345440000000001    0.9035860000000000    0.5974120000000001 Mg
   0.9679959999999999    0.1617600000000000    0.8412930000000000 Si
   0.1217810000000000    0.1090050000000000    0.1966560000000000 Si
   0.6644870000000000    0.6314630000000000    0.2655930000000000 Si
   0.3387140000000000    0.5365090000000000    0.6470119999999999 Si
   0.9818210000000002    0.5133360000000001    0.8588560000000000 Si
   0.1389150000000000    0.7653820000000000    0.2183820000000000 Si
   0.2191150000000000    0.0457450000000000    0.3507750000000000 Si
   0.4414200000000000    0.0377060000000000    0.7736490000000000 Si
