Mg8 Si4
1.0
   5.5143890000000004    0.0000000000000000    0.0000000000000000
  -1.5496319999999999    6.8969579999999997    0.0000000000000000
  -2.5214129999999999   -2.1503990000000002    6.2578360000000002
Mg Si
8 4
direct
   0.2853770000000000    0.7639690000000000    0.0792330000000000 Mg
   0.2746420000000000    0.1942890000000000    0.4324000000000000 Mg
   0.7884310000000001    0.3341400000000000    0.9285330000000001 Mg
   0.3137380000000000    0.9224769999999999    0.7246510000000000 Mg
   0.3410000000000000    0.3210550000000000    0.0486980000000000 Mg
   0.9091089999999999    0.4800740000000000    0.5755280000000000 Mg
   0.7534490000000000    0.9986020000000000    0.5673340000000000 Mg
   0.8582630000000000    0.7208649999999999    0.2563950000000000 Mg
   0.7089770000000000    0.1253100000000000    0.2180820000000000 Si
   0.8757489999999999    0.9496329999999997    0.9714660000000001 Si
   0.3735990000000000    0.5887310000000000    0.4052209999999999 Si
   0.5175560000000001    0.6008550000000000    0.7919860000000000 Si
