Cr10 O14
1.0
   1.5096030000000000   -5.0829560000000003    0.0000000000000000
   1.5096030000000000    5.0829560000000003    0.0000000000000000
   0.0000000000000000    0.0000000000000000   18.2394679999999987
Cr O
10 14
direct
   0.7327810000000000    0.2672189999999999    0.5748390000000000 Cr
   0.0000000000000000    0.0000000000000000    0.5000000000000000 Cr
   0.0000000000000000    0.0000000000000000    0.0000000000000000 Cr
   0.2672189999999999    0.7327810000000000    0.4251610000000000 Cr
   0.2672189999999999    0.7327810000000000    0.0748390000000000 Cr
   0.7327810000000000    0.2672189999999999    0.9251610000000000 Cr
   0.5352640000000000    0.4647359999999999    0.1596580000000000 Cr
   0.4647359999999999    0.5352640000000000    0.8403420000000000 Cr
   0.4647359999999999    0.5352640000000000    0.6596580000000000 Cr
   0.5352640000000000    0.4647359999999999    0.3403420000000000 Cr
   0.3506910000000000    0.6493090000000000    0.9679040000000000 O
   0.6493090000000000    0.3506910000000000    0.0320960000000000 O
   0.6493090000000000    0.3506910000000000    0.4679040000000000 O
   0.3506910000000000    0.6493090000000000    0.5320960000000000 O
   0.8458460000000000    0.1541540000000000    0.8394960000000000 O
   0.1541540000000000    0.8458460000000000    0.1605040000000000 O
   0.1541540000000000    0.8458460000000000    0.3394960000000000 O
   0.8458460000000000    0.1541540000000000    0.6605040000000000 O
   0.1007150000000001    0.8992849999999999    0.9010349999999999 O
   0.8992849999999999    0.1007150000000001    0.0989650000000000 O
   0.8992849999999999    0.1007150000000001    0.4010350000000000 O
   0.1007150000000001    0.8992849999999999    0.5989650000000000 O
   0.5409340000000000    0.4590660000000000    0.7500000000000000 O
   0.4590660000000000    0.5409340000000000    0.2500000000000000 O
