Na26 Cd141
1.0
  10.8513710000000003  -18.7951259999999998    0.0000000000000000
  10.8513710000000003   18.7951259999999998    0.0000000000000000
   0.0000000000000000    0.0000000000000000    9.8064330000000002
Na Cd
26 141
direct
   0.2416380000000000    0.7583620000000000    0.0000000000000000 Na
   0.7583620000000000    0.2416380000000000    0.0000000000000000 Na
   0.5167240000000000    0.7583620000000000    0.0000000000000000 Na
   0.7235819999999999    0.7235819999999999    0.6914500000000000 Na
   0.5756000000000000    0.1511990000000000    0.5000000000000000 Na
   0.2416380000000000    0.4832760000000000    0.0000000000000000 Na
   0.0000000000000000    0.0000000000000000    0.8237080000000000 Na
   0.0000000000000000    0.7235819999999999    0.6914500000000000 Na
   0.4243999999999999    0.8488009999999999    0.5000000000000000 Na
   0.0000000000000000    0.0000000000000000    0.1762920000000000 Na
   0.8488009999999999    0.4243999999999999    0.5000000000000000 Na
   0.7235819999999999    0.0000000000000000    0.6914500000000000 Na
   0.5756000000000000    0.4244000000000000    0.5000000000000000 Na
   0.4244000000000000    0.5756000000000000    0.5000000000000000 Na
   0.7235819999999999    0.7235819999999999    0.3085499999999999 Na
   0.0000000000000000    0.7235819999999999    0.3085499999999999 Na
   0.7583620000000000    0.5167240000000000    0.0000000000000000 Na
  -0.0000000000000000    0.2764180000000000    0.6914500000000000 Na
  -0.0000000000000000    0.2764180000000000    0.3085499999999999 Na
   0.4832760000000000    0.2416380000000000    0.0000000000000000 Na
   0.2764180000000000   -0.0000000000000000    0.6914500000000000 Na
   0.2764180000000000   -0.0000000000000000    0.3085499999999999 Na
   0.7235819999999999    0.0000000000000000    0.3085499999999999 Na
   0.1511990000000000    0.5756000000000000    0.5000000000000000 Na
   0.2764179999999999    0.2764179999999999    0.3085499999999999 Na
   0.2764179999999999    0.2764179999999999    0.6914500000000000 Na
   0.3577180000000000    0.1788590000000000    0.2430850000000000 Cd
   0.8112299999999999    0.9056149999999998    0.2383690000000000 Cd
   0.1887700000000000    0.0943850000000000    0.2383690000000000 Cd
   0.1788590000000000    0.3577180000000000    0.7569150000000000 Cd
   0.5918519999999999    0.7209940000000000    0.5000000000000000 Cd
   0.4204280000000000   -0.0000000000000000    0.5000000000000000 Cd
   0.8211410000000001    0.6422820000000000    0.7569150000000000 Cd
   0.1503290000000000    0.1503290000000000    0.0000000000000000 Cd
   0.4544489999999999    0.1108880000000000    0.2240290000000000 Cd
   0.1788589999999999    0.8211410000000000    0.7569150000000000 Cd
   0.1108880000000000    0.6564390000000000    0.2240290000000000 Cd
   0.5918520000000000    0.8708570000000000    0.5000000000000000 Cd
   0.5455510000000000    0.8891120000000000    0.2240290000000000 Cd
   0.0834400000000000    0.7667790000000000    0.0000000000000000 Cd
   0.2332209999999999    0.9165600000000000    0.0000000000000000 Cd
   0.4462469999999999    0.5537530000000001    0.0000000000000000 Cd
   0.0943849999999999    0.9056149999999999    0.2383690000000000 Cd
   0.6564389999999999    0.5455510000000000    0.2240290000000000 Cd
   0.8211410000000001    0.6422820000000000    0.2430850000000000 Cd
   0.8891120000000000    0.5455510000000000    0.2240290000000000 Cd
   0.1382650000000000    0.1382650000000000    0.5000000000000000 Cd
   0.5795720000000000    0.5795720000000000    0.5000000000000000 Cd
   0.1108880000000000    0.4544489999999999    0.7759710000000000 Cd
   0.7616060000000000    0.3808030000000000    0.1612580000000000 Cd
   0.4762920000000000    0.7381460000000000    0.6546700000000000 Cd
   0.1075060000000000    0.5537530000000001    0.0000000000000000 Cd
   0.1291430000000000    0.4081480000000000    0.5000000000000000 Cd
   0.1503290000000000   -0.0000000000000000    0.0000000000000000 Cd
   0.6422820000000000    0.8211410000000001    0.7569150000000000 Cd
   0.0943850000000000    0.1887700000000000    0.2383690000000000 Cd
   0.6066400000000000    0.0000000000000000    0.0000000000000000 Cd
   0.3435609999999999    0.4544489999999999    0.2240290000000000 Cd
  -0.0000000000000000    0.5795720000000000    0.5000000000000000 Cd
   0.4544489999999999    0.3435609999999999    0.2240290000000000 Cd
   0.0000000000000000    0.5000000000000000    0.2461980000000000 Cd
   0.1364980000000000    0.2729960000000000    0.5000000000000000 Cd
  -0.0000000000000001    0.8617350000000000    0.5000000000000000 Cd
   0.1382650000000000    0.0000000000000000    0.5000000000000000 Cd
   0.3333330000000000    0.6666670000000000    0.5000000000000000 Cd
   0.8635020000000000    0.7270040000000000    0.5000000000000000 Cd
   0.2790059999999999    0.8708570000000000    0.5000000000000000 Cd
   0.8617349999999999    0.8617349999999999    0.5000000000000000 Cd
   0.8708570000000000    0.2790059999999999    0.5000000000000000 Cd
   0.8708570000000000    0.5918520000000000    0.5000000000000000 Cd
   0.0834400000000000    0.3166599999999999    0.0000000000000000 Cd
   0.8496710000000000   -0.0000000000000000    0.0000000000000000 Cd
   0.3808030000000000    0.7616060000000000    0.8387420000000001 Cd
   0.9056149999999998    0.8112299999999999    0.7616309999999999 Cd
   0.2332210000000000    0.3166600000000000    0.0000000000000000 Cd
   0.1364980000000000    0.8635020000000000    0.5000000000000000 Cd
  -0.0000000000000000    0.4204280000000000    0.5000000000000000 Cd
   0.5537530000000001    0.1075060000000000    0.0000000000000000 Cd
   0.7381460000000000    0.4762920000000000    0.6546700000000000 Cd
   0.3435609999999999    0.8891120000000000    0.2240290000000000 Cd
   0.6833399999999998    0.9165600000000000    0.0000000000000000 Cd
   0.2618539999999999    0.5237080000000000    0.6546700000000000 Cd
   0.8112299999999999    0.9056149999999998    0.7616309999999999 Cd
   0.8211410000000000    0.1788589999999999    0.7569150000000000 Cd
   0.4081480000000000    0.2790059999999999    0.5000000000000000 Cd
   0.8924940000000000    0.4462470000000000    0.0000000000000000 Cd
   0.0943850000000000    0.1887700000000000    0.7616309999999999 Cd
   0.7381460000000000    0.4762920000000000    0.3453300000000000 Cd
   0.7381459999999999    0.2618539999999999    0.6546700000000000 Cd
   0.0000000000000000    0.6066400000000000    0.0000000000000000 Cd
   0.8635020000000000    0.1364980000000000    0.5000000000000000 Cd
   0.0000000000000000    0.1382650000000000    0.5000000000000000 Cd
   0.9056149999999999    0.0943849999999999    0.2383690000000000 Cd
   0.4462470000000000    0.8924940000000000    0.0000000000000000 Cd
   0.5455510000000000    0.6564389999999999    0.2240290000000000 Cd
   0.6564389999999999    0.5455510000000000    0.7759710000000000 Cd
   0.2618539999999999    0.5237080000000000    0.3453300000000000 Cd
   0.1788590000000000    0.3577180000000000    0.2430850000000000 Cd
   0.2383939999999999    0.6191969999999999    0.8387420000000001 Cd
   0.4544489999999999    0.3435609999999999    0.7759710000000000 Cd
   0.5455510000000000    0.8891120000000000    0.7759710000000000 Cd
  -0.0000000000000000    0.8496710000000000    0.0000000000000000 Cd
   0.1887700000000000    0.0943850000000000    0.7616309999999999 Cd
   0.4204280000000000    0.4204280000000000    0.5000000000000000 Cd
   0.0000000000000000    0.3933600000000000    0.0000000000000000 Cd
   0.0000000000000000    0.5000000000000000    0.7538020000000000 Cd
   0.6191970000000000    0.3808030000000000    0.1612580000000000 Cd
  -0.0000000000000000    0.1503290000000000    0.0000000000000000 Cd
   0.1108880000000000    0.4544489999999999    0.2240290000000000 Cd
   0.5237080000000000    0.2618539999999999    0.3453300000000000 Cd
   0.4081480000000000    0.1291430000000000    0.5000000000000000 Cd
   0.8891120000000000    0.5455510000000000    0.7759710000000000 Cd
   0.3166600000000000    0.2332210000000000    0.0000000000000000 Cd
   0.5000000000000000    0.0000000000000000    0.7538020000000000 Cd
   0.1291430000000000    0.7209940000000000    0.5000000000000000 Cd
   0.7270040000000000    0.8635020000000000    0.5000000000000000 Cd
   0.3808030000000000    0.6191970000000000    0.1612580000000000 Cd
   0.7209940000000000    0.5918519999999999    0.5000000000000000 Cd
   0.3933600000000000    0.0000000000000000    0.0000000000000000 Cd
   0.9165600000000000    0.2332209999999999    0.0000000000000000 Cd
   0.7667790000000000    0.0834400000000000    0.0000000000000000 Cd
   0.3577180000000000    0.1788590000000000    0.7569150000000000 Cd
   0.8496710000000000    0.8496710000000000    0.0000000000000000 Cd
   0.2729960000000000    0.1364980000000000    0.5000000000000000 Cd
   0.5000000000000000    0.5000000000000000    0.2461980000000000 Cd
   0.5000000000000000    0.5000000000000000    0.7538020000000000 Cd
   0.8211410000000000    0.1788589999999999    0.2430850000000000 Cd
   0.5237080000000000    0.2618539999999999    0.6546700000000000 Cd
   0.6666670000000000    0.3333330000000000    0.5000000000000000 Cd
   0.1788589999999999    0.8211410000000000    0.2430850000000000 Cd
   0.6191969999999999    0.2383939999999999    0.1612580000000000 Cd
   0.3435609999999999    0.4544489999999999    0.7759710000000000 Cd
   0.6191970000000000    0.3808030000000000    0.8387420000000001 Cd
   0.8617350000000000   -0.0000000000000001    0.5000000000000000 Cd
   0.3808030000000000    0.6191970000000000    0.8387420000000001 Cd
   0.5455510000000000    0.6564389999999999    0.7759710000000000 Cd
   0.6564390000000000    0.1108880000000000    0.7759710000000000 Cd
   0.7616060000000000    0.3808030000000000    0.8387420000000001 Cd
   0.7381459999999999    0.2618539999999999    0.3453300000000000 Cd
   0.2618539999999999    0.7381459999999999    0.3453300000000000 Cd
   0.3933600000000000    0.3933600000000000    0.0000000000000000 Cd
   0.6564390000000000    0.1108880000000000    0.2240290000000000 Cd
   0.2383939999999999    0.6191969999999999    0.1612580000000000 Cd
   0.8891120000000000    0.3435609999999999    0.7759710000000000 Cd
   0.5537530000000001    0.4462469999999999    0.0000000000000000 Cd
   0.3166599999999999    0.0834400000000000    0.0000000000000000 Cd
   0.9056149999999999    0.0943849999999999    0.7616309999999999 Cd
   0.4762920000000000    0.7381460000000000    0.3453300000000000 Cd
   0.3435609999999999    0.8891120000000000    0.7759710000000000 Cd
   0.6191969999999999    0.2383939999999999    0.8387420000000001 Cd
   0.7209940000000000    0.1291430000000000    0.5000000000000000 Cd
   0.4544489999999999    0.1108880000000000    0.7759710000000000 Cd
   0.9165600000000000    0.6833399999999998    0.0000000000000000 Cd
   0.8891120000000000    0.3435609999999999    0.2240290000000000 Cd
   0.0943849999999999    0.9056149999999999    0.7616309999999999 Cd
   0.0000000000000000    0.0000000000000000    0.5000000000000000 Cd
   0.2790059999999999    0.4081480000000000    0.5000000000000000 Cd
   0.9056149999999998    0.8112299999999999    0.2383690000000000 Cd
   0.5795720000000000   -0.0000000000000000    0.5000000000000000 Cd
   0.2618539999999999    0.7381459999999999    0.6546700000000000 Cd
   0.7667790000000000    0.6833399999999999    0.0000000000000000 Cd
   0.5000000000000000    0.0000000000000000    0.2461980000000000 Cd
   0.6833399999999999    0.7667790000000000    0.0000000000000000 Cd
   0.6066400000000000    0.6066400000000000    0.0000000000000000 Cd
   0.3808030000000000    0.7616060000000000    0.1612580000000000 Cd
   0.1108880000000000    0.6564390000000000    0.7759710000000000 Cd
   0.6422820000000000    0.8211410000000001    0.2430850000000000 Cd
