B4 H12
1.0
   6.6194319999999998    0.0000000000000000    0.0000000000000000
   0.0000000000000000    4.3105089999999997    0.0000000000000000
   0.0000000000000000    2.7518270000000000    5.6018280000000003
B H
4 12
direct
   0.5424490000000000    0.1395569999999999    0.3576210000000001 B
   0.0424490000000000    0.8604429999999998    0.1423790000000000 B
   0.4575510000000000    0.8604430000000000    0.6423790000000000 B
   0.9575510000000002    0.1395570000000000    0.8576210000000001 B
   0.6414080000000000    0.3859060000000000    0.3322260000000000 H
   0.1414080000000000    0.6140940000000000    0.1677740000000000 H
   0.3585920000000000    0.6140939999999998    0.6677740000000000 H
   0.8585920000000001    0.3859059999999999    0.8322260000000000 H
   0.5013000000000000    0.0819070000000000    0.1922880000000000 H
   0.0013000000000000    0.9180930000000002    0.3077120000000000 H
   0.4987000000000000    0.9180930000000003    0.8077120000000000 H
   0.9987000000000001    0.0819070000000000    0.6922880000000001 H
   0.6246460000000000    0.8587879999999999    0.5272360000000000 H
   0.1246460000000000    0.1412119999999999    0.9727640000000001 H
   0.3753540000000000    0.1412120000000000    0.4727640000000000 H
   0.8753540000000001    0.8587880000000001    0.0272360000000000 H
