Pt2 N4
1.0
   3.2002560000000000    0.0000000000000000    0.0000000000000000
   0.0000000000000000    3.7644150000000001    0.0000000000000000
   0.0000000000000000    0.0000000000000000    4.8758800000000004
Pt N
2 4
direct
   0.0000000000000000    0.0000000000000000    0.0000000000000000 Pt
   0.5000000000000000    0.5000000000000000    0.5000000000000000 Pt
   0.5000000000000000    0.3509420000000000    0.9148899999999999 N
   0.5000000000000000    0.6490580000000000    0.0851100000000000 N
   0.0000000000000000    0.1490580000000000    0.4148900000000000 N
   0.0000000000000000    0.8509420000000000    0.5851100000000000 N
