Y6 O9
1.0
   1.7579990000000001    7.0614020000000002    0.0000000000000000
  -1.7579990000000001    7.0614020000000002    0.0000000000000000
   0.0000000000000000    1.5715220000000001    8.5521460000000005
Y O
6 9
direct
   0.3648250000000001    0.3648250000000001    0.4880389999999999 Y
   0.6351750000000000    0.6351750000000000    0.5119610000000000 Y
   0.9679860000000000    0.9679860000000000    0.8140480000000000 Y
   0.3086360000000000    0.3086360000000000    0.1373280000000000 Y
   0.6913640000000000    0.6913640000000000    0.8626720000000000 Y
   0.0320140000000000    0.0320140000000000    0.1859520000000000 Y
   0.8720039999999999    0.8720039999999999    0.2817720000000000 O
   0.1744680000000000    0.1744680000000000    0.0305170000000000 O
   0.2066920000000000    0.2066920000000000    0.3773700000000000 O
   0.5290370000000001    0.5290370000000001    0.3428560000000000 O
   0.4709630000000000    0.4709630000000000    0.6571440000000000 O
   0.5000000000000000    0.5000000000000000    0.0000000000000000 O
   0.8255320000000000    0.8255320000000000    0.9694830000000000 O
   0.7933080000000000    0.7933080000000000    0.6226299999999999 O
   0.1279960000000000    0.1279960000000000    0.7182280000000000 O
