Sc24 Co8
1.0
   5.8142469999999999    0.0000000000000000    0.0000000000000000
   0.0000000000000000    8.5906439999999993    0.0000000000000000
   0.0000000000000000    0.0000000000000000   13.0167560000000009
Sc Co
24 8
direct
   0.5476259999999999    0.7500000000000000    0.3539909999999999 Sc
   0.0476260000000000    0.2500000000000000    0.1460090000000000 Sc
   0.4523740000000000    0.2500000000000000    0.6460090000000001 Sc
   0.9523740000000001    0.7500000000000000    0.8539909999999998 Sc
   0.7864690000000000    0.7500000000000000    0.1090560000000000 Sc
   0.2864690000000000    0.2500000000000000    0.3909440000000000 Sc
   0.2135310000000000    0.2500000000000000    0.8909440000000000 Sc
   0.7135310000000000    0.7500000000000000    0.6090560000000000 Sc
   0.4075240000000001    0.9326879999999999    0.7873809999999999 Sc
   0.9075240000000000    0.0673120000000000    0.7126190000000000 Sc
   0.5924760000000000    0.4326880000000000    0.2126190000000000 Sc
   0.0924760000000000    0.5673120000000000    0.2873810000000000 Sc
   0.5924760000000000    0.0673120000000000    0.2126190000000000 Sc
   0.0924760000000000    0.9326879999999999    0.2873810000000000 Sc
   0.4075240000000001    0.5673120000000000    0.7873809999999999 Sc
   0.9075240000000000    0.4326880000000000    0.7126190000000000 Sc
   0.2449020000000000    0.9356930000000000    0.5354270000000000 Sc
   0.7449019999999998    0.0643070000000000    0.9645730000000000 Sc
   0.7550980000000002    0.4356930000000000    0.4645730000000000 Sc
   0.2550980000000000    0.5643070000000000    0.0354270000000000 Sc
   0.7550980000000002    0.0643070000000000    0.4645730000000000 Sc
   0.2550980000000000    0.9356930000000000    0.0354270000000000 Sc
   0.2449020000000000    0.5643070000000000    0.5354270000000000 Sc
   0.7449019999999998    0.4356930000000000    0.9645730000000000 Sc
   0.9461360000000000    0.7500000000000000    0.4404859999999999 Co
   0.4461360000000000    0.2500000000000000    0.0595140000000000 Co
   0.0538640000000000    0.2500000000000000    0.5595140000000000 Co
   0.5538640000000000    0.7500000000000000    0.9404860000000000 Co
   0.3726020000000000    0.7500000000000000    0.1798350000000000 Co
   0.8726020000000000    0.2500000000000000    0.3201649999999999 Co
   0.6273980000000000    0.2500000000000000    0.8201650000000000 Co
   0.1273980000000000    0.7500000000000000    0.6798350000000000 Co
