Ni2 Se2
1.0
   1.8459170000000000   -3.1972230000000001    0.0000000000000000
   1.8459170000000000    3.1972230000000001    0.0000000000000000
   0.0000000000000000    0.0000000000000000    5.2151399999999999
Ni Se
2 2
direct
   0.0000000000000000    0.0000000000000000    0.0000000000000000 Ni
   0.0000000000000000    0.0000000000000000    0.5000000000000000 Ni
   0.3333329999999999    0.6666670000000000    0.2500000000000000 Se
   0.6666670000000000    0.3333330000000000    0.7500000000000000 Se
