Zn3 N1
1.0
  -1.7620840000000000    1.7620840000000000    4.1108029999999998
   1.7620840000000000   -1.7620840000000000    4.1108029999999998
   1.7620840000000000    1.7620840000000000   -4.1108029999999998
Zn N
3 1
direct
   0.7500000000000001    0.2500000000000000    0.5000000000000000 Zn
   0.2500000000000000    0.7500000000000001    0.5000000000000001 Zn
   0.5000000000000000    0.5000000000000000    0.0000000000000000 Zn
   0.0000000000000000    0.0000000000000000    0.0000000000000000 N
