Na1 Ni3
1.0
   3.7032300000000000    0.0000000000000000    0.0000000000000000
   0.0000000000000000    3.7032300000000000    0.0000000000000000
   0.0000000000000000    0.0000000000000000    3.7032300000000000
Na Ni
1 3
direct
   0.0000000000000000    0.0000000000000000    0.0000000000000000 Na
   0.0000000000000000    0.5000000000000000    0.5000000000000000 Ni
   0.5000000000000000    0.0000000000000000    0.5000000000000000 Ni
   0.5000000000000000    0.5000000000000000    0.0000000000000000 Ni
