Na3 Cu1
1.0
  -2.4304549999999998    2.4304549999999998    4.2891789999999999
   2.4304549999999998   -2.4304549999999998    4.2891789999999999
   2.4304549999999998    2.4304549999999998   -4.2891789999999999
Na Cu
3 1
direct
   0.7499999999999999    0.2500000000000001    0.4999999999999999 Na
   0.2500000000000001    0.7499999999999999    0.4999999999999999 Na
   0.5000000000000000    0.5000000000000000    0.0000000000000000 Na
   0.0000000000000000    0.0000000000000000    0.0000000000000000 Cu
