Mg12 Si10
1.0
   4.3092259999999998    0.0000000000000000    0.0000000000000000
   1.5438480000000001    8.3765689999999999    0.0000000000000000
   1.4365500000000000    2.0583770000000001   11.7931609999999996
Mg Si
12 10
direct
   0.0182630000000001    0.3662920000000000    0.9018740000000000 Mg
   0.0976589999999999    0.6158720000000000    0.6558970000000000 Mg
   0.1050849999999999    0.7310200000000001    0.3739569999999999 Mg
   0.8663590000000000    0.7433089999999999    0.9135299999999998 Mg
   0.6187720000000001    0.3344949999999999    0.7107869999999999 Mg
   0.6484769999999999    0.8565280000000000    0.1706330000000000 Mg
   0.3284160000000000    0.3279030000000000    0.3332550000000000 Mg
   0.8409309999999999    0.0910700000000000    0.5030010000000000 Mg
   0.1456500000000000    0.0486550000000000    0.7308260000000000 Mg
   0.5202839999999999    0.2224060000000000    0.0778360000000000 Mg
   0.3165349999999999    0.6002840000000000    0.1029880000000000 Mg
   0.1654429999999999    0.9783940000000001    0.0070240000000000 Mg
   0.1868060000000000    0.3315660000000000    0.5601990000000000 Si
   0.4782340000000000    0.9949940000000003    0.3620570000000000 Si
   0.0321230000000000    0.0612680000000000    0.2319040000000000 Si
   0.4648210000000000    0.5827970000000000    0.8357960000000000 Si
   0.6262410000000002    0.8362590000000001    0.6994879999999999 Si
   0.5329860000000000    0.7785739999999999    0.5199309999999999 Si
   0.9364380000000001    0.3576660000000000    0.1596060000000000 Si
   0.6858190000000000    0.4925760000000000    0.4845090000000000 Si
   0.6605559999999999    0.0910679999999999    0.8867900000000000 Si
   0.7206160000000001    0.5568050000000000    0.2816150000000000 Si
