Sn12 O24
1.0
   3.2245699999999999   -5.5851189999999997    0.0000000000000000
   3.2245699999999999    5.5851189999999997    0.0000000000000000
   0.0000000000000000    0.0000000000000000   15.5314409999999992
Sn O
12 24
direct
   0.9819930000000000    0.4909969999999999    0.1674960000000000 Sn
   0.1676190000000000    0.8323809999999999    0.4983920000000000 Sn
   0.3333330000000000    0.6666669999999999    0.3300740000000000 Sn
   0.5090030000000000    0.0180070000000000    0.1674960000000000 Sn
   0.6647610000000002    0.8323809999999999    0.4983920000000000 Sn
   0.5090030000000000    0.4909970000000000    0.1674960000000000 Sn
   0.0000000000000000    0.0000000000000000    0.6635220000000001 Sn
   0.1676190000000001    0.3352390000000000    0.4983920000000000 Sn
   0.3296200000000000    0.1648100000000000    0.8346110000000000 Sn
   0.8351900000000000    0.6703800000000000    0.8346110000000000 Sn
   0.8351900000000000    0.1648100000000000    0.8346110000000000 Sn
   0.3333330000000000    0.6666669999999999    0.9566760000000001 Sn
   0.3524160000000000    0.1762079999999999    0.0997110000000000 O
   0.8237920000000000    0.6475839999999999    0.0997110000000000 O
   0.6666670000000000    0.3333329999999999    0.2442350000000000 O
   0.8237920000000000    0.1762080000000000    0.0997110000000000 O
   0.0429790000000001    0.5214900000000000    0.4219350000000001 O
   0.1927380000000000    0.8072619999999999    0.2419950000000000 O
   0.3333330000000000    0.6666669999999999    0.0845800000000000 O
   0.1927380000000000    0.3854770000000000    0.2419950000000000 O
   0.4785100000000000    0.9570209999999999    0.4219350000000001 O
   0.3333330000000000    0.6666669999999999    0.5686980000000000 O
   0.4785100000000000    0.5214900000000000    0.4219350000000001 O
   0.6145230000000000    0.8072619999999999    0.2419950000000000 O
   0.7138949999999999    0.8569479999999999    0.7544530000000002 O
   0.8540880000000000    0.1459120000000000    0.5779470000000001 O
   0.0000000000000000    0.0000000000000000    0.4325130000000000 O
   0.8540880000000001    0.7081769999999998    0.5779470000000001 O
   0.0000000000000000    0.0000000000000000    0.9034920000000001 O
   0.1430520000000000    0.2861050000000000    0.7544530000000002 O
   0.1430520000000000    0.8569479999999999    0.7544530000000002 O
   0.2918230000000001    0.1459120000000000    0.5779470000000001 O
   0.5000890000000000    0.4999110000000000    0.9021040000000000 O
   0.5000890000000000    0.0001770000000000    0.9021040000000000 O
   0.6666670000000000    0.3333329999999999    0.7738080000000001 O
   0.9998229999999999    0.4999109999999998    0.9021040000000000 O
