Li3 Mg1
1.0
   4.3159000000000001    0.0000000000000000    0.0000000000000000
   0.0000000000000000    4.3159000000000001    0.0000000000000000
   0.0000000000000000    0.0000000000000000    4.3159000000000001
Li Mg
3 1
direct
   0.5000000000000000    0.5000000000000000    0.0000000000000000 Li
   0.5000000000000000    0.0000000000000000    0.5000000000000000 Li
   0.0000000000000000    0.5000000000000000    0.5000000000000000 Li
   0.0000000000000000    0.0000000000000000    0.0000000000000000 Mg
