Sn4 O8
1.0
   1.6106210000000001   -5.0664870000000004    0.0000000000000000
   1.6106210000000001    5.0664870000000004    0.0000000000000000
   0.0000000000000000    0.0000000000000000   10.4597099999999994
Sn O
4 8
direct
   0.1374800000000001    0.8625200000000000    0.0804140000000000 Sn
   0.8625200000000000    0.1374800000000001    0.9195860000000000 Sn
   0.1374800000000001    0.8625200000000000    0.4195860000000000 Sn
   0.8625200000000000    0.1374800000000001    0.5804140000000000 Sn
   0.7650540000000000    0.2349460000000000    0.3986250000000001 O
   0.2349460000000000    0.7650540000000000    0.6013750000000000 O
   0.2349460000000000    0.7650540000000000    0.8986250000000000 O
   0.7650540000000000    0.2349460000000000    0.1013750000000000 O
   0.0531550000000001    0.9468450000000000    0.2500000000000000 O
   0.9468450000000000    0.0531550000000001    0.7500000000000000 O
   0.5000000000000000    0.5000000000000000    0.0000000000000000 O
   0.5000000000000000    0.5000000000000000    0.5000000000000000 O
