In1 Tc3
1.0
  -1.9379550000000001    1.9379550000000001    4.2304469999999998
   1.9379550000000001   -1.9379550000000001    4.2304469999999998
   1.9379550000000001    1.9379550000000001   -4.2304469999999998
In Tc
1 3
direct
   0.0000000000000000    0.0000000000000000    0.0000000000000000 In
   0.7500000000000000    0.2500000000000001    0.5000000000000000 Tc
   0.2500000000000001    0.7500000000000000    0.5000000000000000 Tc
   0.5000000000000000    0.5000000000000000    0.0000000000000000 Tc
