Nd2 Pd2
1.0
   1.9344850000000000   -5.4664440000000001    0.0000000000000000
   1.9344850000000000    5.4664440000000001    0.0000000000000000
   0.0000000000000000    0.0000000000000000    4.6767630000000002
Nd Pd
2 2
direct
   0.8637679999999999    0.1362320000000000    0.7499999999999999 Nd
   0.1362320000000000    0.8637679999999999    0.2500000000000000 Nd
   0.5863090000000000    0.4136910000000000    0.7499999999999999 Pd
   0.4136910000000000    0.5863090000000000    0.2500000000000000 Pd
