Rb5 Sb4
1.0
   2.8927719999999999    6.5501589999999998    0.0000000000000000
  -2.8927719999999999    6.5501589999999998    0.0000000000000000
   0.0000000000000000    4.5279999999999996   10.8440390000000004
Rb Sb
5 4
direct
   0.7502279999999999    0.7502279999999999    0.6659420000000000 Rb
   0.2600560000000000    0.2600560000000000    0.3321130000000000 Rb
   0.3951590000000001    0.3951590000000001    0.8955330000000000 Rb
   0.6047200000000001    0.6047200000000001    0.1003900000000000 Rb
   0.5280790000000000    0.5280790000000000    0.4835460000000000 Rb
   0.0420620000000000    0.0420620000000000    0.6829100000000001 Sb
   0.9559009999999999    0.9559009999999999    0.3187130000000000 Sb
   0.1003140000000000    0.1003140000000000    0.8904240000000000 Sb
   0.8987799999999999    0.8987799999999999    0.1093290000000000 Sb
