Hg3 Pt1
1.0
  -2.1021830000000001    2.1021830000000001    4.6325320000000003
   2.1021830000000001   -2.1021830000000001    4.6325320000000003
   2.1021830000000001    2.1021830000000001   -4.6325320000000003
Hg Pt
3 1
direct
   0.7500000000000000    0.2500000000000000    0.5000000000000000 Hg
   0.2500000000000000    0.7500000000000000    0.5000000000000000 Hg
   0.5000000000000000    0.5000000000000000    0.0000000000000000 Hg
   0.0000000000000000    0.0000000000000000    0.0000000000000000 Pt
