Ce12 Al4
1.0
   5.2051509999999999    0.0000000000000000    0.0000000000000000
   0.0000000000000000    6.6788119999999997    0.0000000000000000
   0.0000000000000000    0.2063620000000000   11.8548609999999996
Ce Al
12 4
direct
   0.7499999999999999    0.5063820000000000    0.3264030000000000 Ce
   0.2500000000000000    0.7428730000000000    0.3943800000000000 Ce
   0.2500000000000000    0.7243030000000000    0.9286320000000000 Ce
   0.7499999999999999    0.2756970000000000    0.0713680000000000 Ce
   0.7499999999999999    0.2571270000000000    0.6056200000000000 Ce
   0.2500000000000000    0.4936180000000000    0.6735970000000000 Ce
   0.2500000000000000    0.9898660000000000    0.1995980000000000 Ce
   0.2500000000000000    0.2842520000000000    0.9268760000000000 Ce
   0.2500000000000000    0.2211350000000000    0.4023140000000000 Ce
   0.7499999999999999    0.7788649999999999    0.5976860000000001 Ce
   0.7499999999999999    0.7157480000000001    0.0731240000000000 Ce
   0.7499999999999999    0.0101340000000000    0.8004019999999999 Ce
   0.7499999999999999    0.9962499999999999    0.3391530000000000 Al
   0.2500000000000000    0.4880159999999999    0.1695230000000000 Al
   0.2500000000000000    0.0037500000000000    0.6608470000000000 Al
   0.7499999999999999    0.5119840000000001    0.8304770000000000 Al
