Pt4 O12
1.0
   4.9286300000000001    0.0000000000000000    0.0000000000000000
   0.0000000000000000    5.0274780000000003    0.0000000000000000
   0.0000000000000000    0.0000000000000000    7.2100650000000002
Pt O
4 12
direct
   0.0000000000000000    0.0000000000000000    0.0000000000000000 Pt
   0.0000000000000000    0.0000000000000000    0.5000000000000000 Pt
   0.4999999999999999    0.5000000000000000    0.0000000000000000 Pt
   0.4999999999999999    0.5000000000000000    0.5000000000000000 Pt
   0.8508050000000000    0.6522850000000000    0.0785860000000000 O
   0.1491950000000000    0.3477150000000000    0.5785860000000000 O
   0.8408879999999999    0.9553140000000001    0.7500000000000000 O
   0.6491950000000000    0.1522850000000000    0.0785860000000000 O
   0.3408880000000000    0.5446860000000000    0.2500000000000000 O
   0.6491950000000000    0.1522850000000000    0.4214140000000000 O
   0.3508049999999999    0.8477150000000001    0.9214140000000000 O
   0.1591120000000000    0.0446860000000000    0.2500000000000000 O
   0.6591120000000000    0.4553140000000000    0.7500000000000000 O
   0.3508049999999999    0.8477150000000001    0.5785860000000000 O
   0.1491950000000000    0.3477150000000000    0.9214140000000000 O
   0.8508050000000000    0.6522850000000000    0.4214140000000000 O
