Mg2 Si4
1.0
   1.7494330000000000   -5.5386610000000003    0.0000000000000000
   1.7494330000000000    5.5386610000000003    0.0000000000000000
   0.0000000000000000    0.0000000000000000    5.3458230000000002
Mg Si
2 4
direct
   0.8185000000000000    0.1815000000000000    0.7500000000000001 Mg
   0.1815000000000000    0.8185000000000000    0.2500000000000000 Mg
   0.5000000000000000    0.5000000000000000    0.0000000000000000 Si
   0.5000000000000000    0.5000000000000000    0.5000000000000000 Si
   0.8826850000000002    0.1173150000000001    0.2500000000000000 Si
   0.1173150000000001    0.8826850000000002    0.7500000000000001 Si
