Yb4 S6
1.0
   5.5268680000000003    4.2048240000000003    0.0000000000000000
  -5.5268680000000003    4.2048240000000003    0.0000000000000000
   0.0000000000000000    3.0833590000000002    4.8258419999999997
Yb S
4 6
direct
   0.5684430000000000    0.8347239999999999    0.7924770000000000 Yb
   0.4315570000000000    0.1652760000000001    0.2075230000000000 Yb
   0.8347239999999999    0.5684429999999999    0.2924770000000000 Yb
   0.1652760000000000    0.4315570000000000    0.7075229999999999 Yb
   0.1876910000000000    0.4308590000000000    0.2058560000000000 S
   0.8832080000000000    0.1167920000000000    0.2500000000000000 S
   0.5691410000000000    0.8123089999999999    0.2941440000000000 S
   0.8123090000000001    0.5691410000000000    0.7941439999999999 S
   0.1167920000000000    0.8832080000000000    0.7500000000000000 S
   0.4308589999999999    0.1876910000000000    0.7058560000000000 S
