Re8 P4
1.0
   2.9660880000000001    0.0000000000000000    0.0000000000000000
   0.0000000000000000    5.5778230000000004    0.0000000000000000
   0.0000000000000000    0.0000000000000000   10.1129560000000005
Re P
8 4
direct
   0.2500000000000000    0.8246909999999998    0.9351460000000000 Re
   0.2500000000000000    0.3246910000000000    0.5648539999999999 Re
   0.7500000000000000    0.1753090000000000    0.0648540000000000 Re
   0.7500000000000000    0.6753090000000000    0.4351460000000000 Re
   0.2500000000000000    0.8533210000000000    0.2135810000000000 Re
   0.2500000000000000    0.3533210000000000    0.2864190000000000 Re
   0.7500000000000000    0.1466790000000000    0.7864190000000000 Re
   0.7500000000000000    0.6466790000000000    0.7135810000000000 Re
   0.2500000000000000    0.4023200000000001    0.8981789999999999 P
   0.2500000000000000    0.9023200000000000    0.6018210000000001 P
   0.7500000000000000    0.5976800000000000    0.1018210000000000 P
   0.7500000000000000    0.0976800000000000    0.3981790000000000 P
