Al41 V4
1.0
   0.0000000000000000    7.2330439999999996    7.2330439999999996
   7.2330439999999996    0.0000000000000000    7.2330439999999996
   7.2330439999999996    7.2330439999999996    0.0000000000000000
Al V
41 4
direct
   0.3765659999999999    0.8744780000000000    0.8744780000000001 Al
   0.8744780000000001    0.3765659999999998    0.8744780000000001 Al
   0.8744780000000000    0.8744780000000000    0.3765659999999998 Al
   0.8744780000000000    0.8744780000000000    0.8744780000000000 Al
   0.8166239999999999    0.5523690000000000    0.5523690000000000 Al
   0.5523689999999999    0.8166240000000000    0.0786370000000000 Al
   0.5523689999999999    0.0786370000000001    0.8166240000000001 Al
   0.0786370000000000    0.5523690000000000    0.5523690000000000 Al
   0.5523690000000000    0.5523690000000000    0.8166239999999999 Al
   0.8166240000000000    0.0786370000000001    0.5523689999999999 Al
   0.0786370000000001    0.8166240000000000    0.5523689999999999 Al
   0.5523690000000000    0.5523690000000000    0.0786370000000000 Al
   0.5523690000000000    0.8166239999999999    0.5523690000000000 Al
   0.0786370000000001    0.5523689999999999    0.8166239999999999 Al
   0.8166240000000000    0.5523689999999999    0.0786370000000000 Al
   0.5523690000000000    0.0786370000000000    0.5523690000000000 Al
   0.9329179999999999    0.1976830000000000    0.1976830000000000 Al
   0.1976829999999999    0.9329180000000000    0.6717160000000000 Al
   0.1976829999999999    0.6717160000000001    0.9329179999999999 Al
   0.6717160000000000    0.1976830000000000    0.1976829999999999 Al
   0.1976830000000000    0.1976830000000000    0.9329179999999999 Al
   0.9329179999999999    0.6717160000000001    0.1976830000000000 Al
   0.6717160000000001    0.9329180000000000    0.1976830000000000 Al
   0.1976830000000000    0.1976830000000000    0.6717160000000000 Al
   0.1976830000000000    0.9329179999999999    0.1976830000000001 Al
   0.6717160000000000    0.1976830000000000    0.9329179999999999 Al
   0.9329179999999999    0.1976830000000000    0.6717160000000000 Al
   0.1976830000000000    0.6717160000000000    0.1976830000000001 Al
   0.1100400000000000    0.1100400000000000    0.3899599999999999 Al
   0.3899600000000000    0.3899600000000000    0.1100400000000000 Al
   0.1100400000000000    0.3899600000000000    0.1100400000000000 Al
   0.3899600000000000    0.1100400000000000    0.3899600000000000 Al
   0.3899600000000000    0.1100400000000000    0.1100400000000000 Al
   0.1100400000000000    0.3899600000000000    0.3899600000000000 Al
   0.6392570000000001    0.6392570000000000    0.3607430000000000 Al
   0.3607430000000000    0.3607430000000000    0.6392570000000000 Al
   0.6392570000000001    0.3607430000000000    0.6392570000000000 Al
   0.3607430000000000    0.6392570000000000    0.3607430000000000 Al
   0.3607430000000000    0.6392570000000001    0.6392570000000002 Al
   0.6392570000000000    0.3607430000000000    0.3607430000000000 Al
   0.7500000000000001    0.7500000000000000    0.7500000000000000 Al
   0.8749899999999999    0.3750030000000000    0.3750030000000000 V
   0.3750030000000000    0.8749899999999999    0.3750030000000000 V
   0.3750030000000000    0.3750030000000000    0.8749899999999999 V
   0.3750030000000000    0.3750030000000000    0.3750030000000000 V
