Ni4 O10
1.0
   2.3899840000000001    5.5819210000000004    0.0000000000000000
  -2.3899840000000001    5.5819210000000004    0.0000000000000000
   0.0000000000000000    1.0745400000000001    5.3396990000000004
Ni O
4 10
direct
   0.9186480000000000    0.3647680000000000    0.6989609999999999 Ni
   0.6352320000000000    0.0813520000000000    0.8010389999999999 Ni
   0.0813520000000000    0.6352320000000000    0.3010390000000000 Ni
   0.3647680000000000    0.9186480000000000    0.1989610000000000 Ni
   0.8565800000000000    0.7199570000000001    0.6216469999999999 O
   0.2800430000000000    0.1434200000000000    0.8783529999999999 O
   0.1434200000000000    0.2800430000000000    0.3783530000000000 O
   0.7199570000000001    0.8565800000000001    0.1216470000000000 O
   0.0164590000000002    0.9835409999999999    0.2500000000000000 O
   0.9835409999999998    0.0164590000000001    0.7500000000000000 O
   0.4649760000000001    0.4187010000000000    0.5028180000000000 O
   0.5812990000000001    0.5350240000000002    0.9971820000000000 O
   0.5350240000000002    0.5812990000000001    0.4971820000000000 O
   0.4187010000000000    0.4649760000000001    0.0028180000000000 O
