Hf2 Zn4
1.0
   0.0000000000000000    3.6779080000000000    3.6779080000000000
   3.6779080000000000    0.0000000000000000    3.6779080000000000
   3.6779080000000000    3.6779080000000000    0.0000000000000000
Hf Zn
2 4
direct
   0.7500000000000000    0.7500000000000000    0.7500000000000000 Hf
   0.5000000000000000    0.5000000000000000    0.5000000000000000 Hf
   0.1250000000000000    0.1250000000000000    0.6250000000000000 Zn
   0.1250000000000000    0.6250000000000000    0.1250000000000000 Zn
   0.1250000000000000    0.1250000000000000    0.1250000000000000 Zn
   0.6250000000000000    0.1250000000000000    0.1250000000000000 Zn
