Mg1 Ti5
1.0
   1.4793730000000000   -2.5623490000000002    0.0000000000000000
   1.4793730000000000    2.5623490000000002    0.0000000000000000
   0.0000000000000000    0.0000000000000000   14.3233949999999997
Mg Ti
1 5
direct
   0.0000000000000000    0.0000000000000000    0.0000000000000000 Mg
   0.3333330000000000    0.6666669999999999    0.8205980000000002 Ti
   0.0000000000000000    0.0000000000000000    0.6637480000000001 Ti
   0.3333330000000000    0.6666669999999999    0.5000000000000000 Ti
   0.0000000000000000    0.0000000000000000    0.3362520000000000 Ti
   0.3333330000000000    0.6666669999999999    0.1794020000000000 Ti
