Y2 Mg4
1.0
   2.8873720000000000   -5.0118489999999998    0.0000000000000000
   2.8873720000000000    5.0118489999999998    0.0000000000000000
   0.0000000000000000    0.0000000000000000    5.4425189999999999
Y Mg
2 4
direct
   0.6827480000000000    0.6827479999999999    0.7499999999999999 Y
   0.3172520000000000    0.3172520000000000    0.2500000000000000 Y
   0.9970390000000000    0.3333420000000001    0.7499999999999999 Mg
   0.3333420000000002    0.9970390000000000    0.7499999999999999 Mg
   0.6666580000000000    0.0029610000000000    0.2500000000000000 Mg
   0.0029610000000001    0.6666580000000000    0.2500000000000000 Mg
