Pm2 Zn6
1.0
   3.2187779999999999   -5.5750869999999999    0.0000000000000000
   3.2187779999999999    5.5750869999999999    0.0000000000000000
   0.0000000000000000    0.0000000000000000    4.4519099999999998
Pm Zn
2 6
direct
   0.3333330000000001    0.6666670000000001    0.7500000000000000 Pm
   0.6666670000000001    0.3333330000000001    0.2500000000000000 Pm
   0.1462550000000000    0.2925090000000000    0.2500000000000000 Zn
   0.7074909999999999    0.8537450000000000    0.2500000000000000 Zn
   0.1462549999999999    0.8537450000000000    0.2500000000000000 Zn
   0.8537450000000000    0.7074909999999999    0.7500000000000000 Zn
   0.2925090000000000    0.1462550000000000    0.7500000000000000 Zn
   0.8537450000000000    0.1462549999999999    0.7500000000000000 Zn
