Er4 Ru8
1.0
   2.6281550000000000   -4.5520980000000000    0.0000000000000000
   2.6281550000000000    4.5520980000000000    0.0000000000000000
   0.0000000000000000    0.0000000000000000    8.9003650000000007
Er Ru
4 8
direct
   0.3333329999999999    0.6666670000000001    0.4330580000000000 Er
   0.6666669999999999    0.3333330000000001    0.5669419999999999 Er
   0.6666669999999999    0.3333330000000001    0.9330580000000002 Er
   0.3333329999999999    0.6666670000000001    0.0669420000000000 Er
   0.1709180000000000    0.3418360000000000    0.7500000000000000 Ru
   0.1709180000000000    0.8290820000000001    0.7500000000000000 Ru
   0.3418360000000000    0.1709180000000000    0.2500000000000000 Ru
   0.8290819999999999    0.6581640000000002    0.2500000000000000 Ru
   0.6581640000000000    0.8290820000000001    0.7500000000000000 Ru
   0.0000000000000000    0.0000000000000000    0.0000000000000000 Ru
   0.8290819999999999    0.1709180000000001    0.2500000000000000 Ru
   0.0000000000000000    0.0000000000000000    0.5000000000000000 Ru
