Cu18 S10
1.0
   6.7250839999999998    0.0000000000000000    0.0000000000000000
   2.2325949999999999    7.4412450000000003    0.0000000000000000
   2.2483719999999998    1.3475910000000000    8.2992620000000006
Cu S
18 10
direct
   0.0463630000000000    0.4544080000000000    0.1500890000000000 Cu
   0.9538299999999998    0.0520460000000000    0.8498890000000000 Cu
   0.0461700000000000    0.9479540000000000    0.1501110000000000 Cu
   0.1514890000000000    0.3493560000000000    0.4534980000000000 Cu
   0.9536369999999996    0.5455920000000001    0.8499110000000000 Cu
   0.4457469999999999    0.5548409999999999    0.3475790000000001 Cu
   0.3476989999999999    0.6519490000000000    0.0436070000000000 Cu
   0.2562920000000000    0.7493830000000000    0.7446580000000000 Cu
   0.1508590000000000    0.8489400000000000    0.4487940000000000 Cu
   0.6504780000000000    0.8488890000000000    0.9541940000000000 Cu
   0.5460009999999998    0.9534589999999997    0.6508020000000000 Cu
   0.4539989999999999    0.0465410000000000    0.3491980000000000 Cu
   0.8491410000000001    0.1510600000000000    0.5512060000000000 Cu
   0.3495220000000000    0.1511110000000000    0.0458060000000000 Cu
   0.6523010000000001    0.3480510000000000    0.9563930000000002 Cu
   0.5542530000000000    0.4451590000000000    0.6524210000000000 Cu
   0.8485109999999999    0.6506439999999999    0.5465020000000000 Cu
   0.7437079999999999    0.2506170000000000    0.2553420000000000 Cu
   0.8987430000000002    0.8499909999999999    0.7006310000000000 S
   0.9025669999999998    0.3496800000000000    0.6995450000000000 S
   0.0974330000000000    0.6503199999999999    0.3004550000000000 S
   0.2994559999999999    0.9530220000000001    0.8995900000000000 S
   0.1012570000000000    0.1500090000000000    0.2993690000000000 S
   0.4976460000000000    0.2501290000000000    0.5016880000000000 S
   0.2986509999999999    0.4481010000000001    0.8990200000000000 S
   0.7013490000000000    0.5518990000000000    0.1009800000000000 S
   0.5023540000000000    0.7498710000000000    0.4983119999999999 S
   0.7005439999999998    0.0469780000000000    0.1004100000000000 S
