Sr10 Si6
1.0
  -4.0390170000000003    4.0390170000000003    7.9367440000000000
   4.0390170000000003   -4.0390170000000003    7.9367440000000000
   4.0390170000000003    4.0390170000000003   -7.9367440000000000
Sr Si
10 6
direct
   0.0389750000000000    0.1789710000000000    0.5000000000000000 Sr
   0.5389750000000000    0.0389750000000001    0.8600040000000000 Sr
   0.1789710000000000    0.6789710000000000    0.1399960000000000 Sr
   0.4610250000000001    0.9610250000000001    0.1399960000000000 Sr
   0.6789709999999999    0.5389749999999999    0.5000000000000000 Sr
   0.9610250000000000    0.8210290000000000    0.5000000000000000 Sr
   0.3210290000000000    0.4610250000000000    0.5000000000000000 Sr
   0.8210290000000000    0.3210290000000000    0.8600039999999999 Sr
   0.5000000000000000    0.5000000000000000    0.0000000000000000 Sr
   0.0000000000000000    0.0000000000000000    0.0000000000000000 Sr
   0.1076700000000000    0.6076699999999999    0.7153399999999999 Si
   0.6076700000000000    0.8923300000000000    0.5000000000000000 Si
   0.3923300000000000    0.1076700000000000    0.5000000000000000 Si
   0.8923300000000000    0.3923300000000001    0.2846600000000000 Si
   0.7500000000000000    0.7500000000000000    0.0000000000000000 Si
   0.2500000000000000    0.2500000000000000    0.0000000000000000 Si
