Sr1 Mg3
1.0
   1.7843410000000000   -3.0905689999999999    0.0000000000000000
   1.7843410000000000    3.0905689999999999    0.0000000000000000
   0.0000000000000000    0.0000000000000000   10.9423929999999991
Sr Mg
1 3
direct
   0.6666670000000000    0.3333330000000000    0.5000000000000000 Sr
   0.6666670000000000    0.3333330000000000    0.0000000000000000 Mg
   0.0000000000000000    0.0000000000000000    0.2281800000000000 Mg
   0.0000000000000000    0.0000000000000000    0.7718200000000000 Mg
