Ga6 Te2
1.0
   3.1970610000000002   -5.5374720000000002    0.0000000000000000
   3.1970610000000002    5.5374720000000002    0.0000000000000000
   0.0000000000000000    0.0000000000000000    5.2618950000000000
Ga Te
6 2
direct
   0.1584069999999999    0.3168140000000000    0.2500000000000000 Ga
   0.6831859999999997    0.8415930000000001    0.2500000000000000 Ga
   0.1584069999999999    0.8415930000000000    0.2500000000000000 Ga
   0.8415929999999999    0.6831860000000000    0.7500000000000001 Ga
   0.3168139999999999    0.1584070000000000    0.7500000000000001 Ga
   0.8415929999999999    0.1584070000000000    0.7500000000000001 Ga
   0.3333329999999999    0.6666670000000000    0.7500000000000001 Te
   0.6666669999999999    0.3333330000000000    0.2500000000000000 Te
