B40 O60
1.0
  10.1216072799999992   -0.1704206100000000    0.0948091400000000
  -0.1665473500000000   10.7563548099999995    0.8118420600000000
   0.0947663600000000    0.8076484700000000   12.2305203799999997
B O
40 60
direct
   0.7279848899999999    0.5603676900000001    0.7147682100000000 B
   0.4321054700000000    0.6305783800000001    0.0090009000000000 B
   0.9512807699999999    0.4659517600000001    0.0019900500000000 B
   0.0039909900000000    0.5343332600000001    0.4389920400000000 B
   0.5980622500000000    0.1457304400000000    0.8356924999999998 B
   0.6997268300000001    0.8427565900000001    0.4861445800000000 B
   0.4952732499999999    0.7065698100000000    0.4972854800000000 B
   0.7939849499999999    0.8729552700000001    0.2857599900000000 B
   0.1790641600000000    0.4878696300000001    0.2920061400000000 B
   0.3122718999999999    0.2790082700000000    0.2958539500000000 B
   0.2845969400000000    0.9869431800000001    0.1343988000000000 B
   0.9972153200000000    0.2482540700000000    0.0436559400000000 B
   0.0050834000000000    0.8975122100000001    0.8685108700000000 B
   0.4176443300000000    0.9162767100000001    0.4257951000000000 B
   0.7571437099999999    0.6932839400000000    0.1738378200000000 B
   0.8744907999999999    0.0314195300000000    0.1209596600000000 B
   0.7075027600000000    0.8818566600000001    0.0342370400000000 B
   0.5905562999999999    0.9135834200000000    0.8383041200000000 B
   0.4255550399999999    0.2298776800000000    0.9716714100000000 B
   0.8015751100000000    0.0228474400000000    0.8906905200000000 B
   0.5712625099999999    0.3672765600000000    0.7167612799999998 B
   0.1874918500000000    0.2265150200000001    0.8684475900000000 B
   0.3960657799999999    0.5284556200000001    0.6420602299999999 B
   0.8305896499999998    0.3898850700000001    0.3873245000000001 B
   0.4819858699999999    0.0913344700000000    0.5207360300000000 B
   0.0619417100000000    0.9742292100000000    0.5116600200000000 B
   0.9740801099999998    0.3469619400000000    0.8535465000000000 B
   0.2182623800000000    0.6077677700000002    0.1005959400000000 B
   0.6896215199999999    0.4461594300000001    0.2202789500000000 B
   0.1961875200000000    0.6579547100000002    0.6887479600000000 B
   0.4909594900000000    0.3177009400000000    0.1545341100000000 B
   0.8340519400000002    0.0075638300000000    0.5432651700000000 B
   0.0291267000000000    0.6954311700000001    0.9974892300000001 B
   0.0527073000000000    0.2503186500000000    0.7025327199999999 B
   0.5678604300000000    0.6779036600000001    0.8396812500000000 B
   0.1414534200000000    0.8683853900000003    0.7013245200000001 B
   0.2533503200000000    0.0583158900000000    0.3747958100000000 B
   0.9706993000000000    0.6063417700000000    0.6317176400000000 B
   0.4738588000000000    0.8497955699999998    0.0840511000000000 B
   0.9037838799999999    0.2135058200000000    0.5483964000000000 B
   0.8120870500000000    0.9850471100000001    0.0364383300000000 O
   0.7327759599999999    0.5670874200000001    0.1929098400000000 O
   0.1717553500000000    0.9812250900000001    0.4461201800000000 O
   0.6637020700000000    0.6387368500000000    0.7753317100000000 O
   0.4408217500000000    0.5945144200000001    0.5431213100000000 O
   0.4709641399999999    0.7369781900000000    0.0492039200000000 O
   0.7252772000000000    0.8934197800000001    0.3781122100000000 O
   0.1195197500000000    0.8829785500000000    0.8088191900000000 O
   0.5441881600000000    0.0254511200000000    0.8026087900000001 O
   0.1629894900000000    0.2102059300000000    0.7623238700000000 O
   0.6868123400000000    0.4413438500000001    0.7060348600000002 O
   0.4222535700000000    0.7906446200000000    0.4267554300000000 O
   0.5733925600000001    0.2445546900000000    0.7489140200000001 O
   0.0242294100000000    0.2226952200000000    0.6015611000000000 O
   0.4963586300000000    0.5962962800000001    0.9188666599999999 O
   0.7433953100000000    0.1330165600000000    0.8589061400000000 O
   0.9695274599999999    0.7996202699999999    0.9493441200000000 O
   0.9558064099999999    0.5837783000000001    0.0239682200000000 O
   0.0667790300000000    0.9334762599999998    0.6226691600000001 O
   0.9804500999999999    0.3623314000000001    0.0783045800000000 O
   0.8596762900000000    0.9766060300000001    0.2269722400000000 O
   0.2664957700000000    0.3978435800000001    0.2806566700000000 O
   0.4342930500000000    0.2608205000000000    0.2531220000000000 O
   0.2961586500000000    0.2266525300000000    0.9233307300000000 O
   0.1583999200000000    0.5782820500000001    0.2021249600000000 O
   0.8410212500000001    0.6053442800000000    0.6573322300000001 O
   0.6238377600000000    0.7357582400000001    0.5177413400000000 O
   0.2820754799999999    0.5635367100000001    0.6912519199999999 O
   0.4868247700000000    0.2049684900000000    0.5200883500000000 O
   0.7087085500000000    0.9062179200000001    0.9051423100000001 O
   0.4308159500000001    0.2953469500000000    0.0595357100000000 O
   0.3551392199999999    0.8909209600000001    0.1233353800000000 O
   0.9516662399999999    0.1402248600000000    0.0954931100000000 O
   0.3317629100000000    0.5572521200000000    0.0655177100000000 O
   0.7479572300000000    0.9061704400000001    0.5671863900000000 O
   0.5282250400000000    0.1707859100000000    0.9381696400000000 O
   0.0554845900000000    0.2608984600000000    0.9275751700000000 O
   0.5995777200000000    0.3978709100000000    0.1523038900000000 O
   0.0621473100000000    0.6277755800000001    0.7097841499999999 O
   0.4513092500000000    0.4239577800000001    0.6929103200000000 O
   0.7402498799999999    0.3692965500000000    0.3086494200000001 O
   0.5336835799999999    0.8019780500000000    0.8212985200000000 O
   0.8172648999999998    0.1140500400000000    0.5884150100000000 O
   0.9717101800000000    0.3336816300000001    0.7468296199999999 O
   0.3635136699999999    0.9967303400000002    0.3422490300000000 O
   0.7987461400000000    0.7534853200000000    0.2606214400000000 O
   0.2330362000000000    0.1830532300000000    0.3511722300000000 O
   0.9308666700000000    0.0018540500000000    0.8501286900000001 O
   0.8804705000000002    0.5063322700000000    0.4010651800000000 O
   0.7399292899999999    0.7574132400000002    0.0719143400000000 O
   0.2072860100000000    0.0714901700000000    0.1397326500000000 O
   0.1156603200000000    0.4973104600000001    0.3891553100000000 O
   0.5864474600000000    0.9205116400000000    0.0825961500000000 O
   0.1591320500000000    0.6970894100000001    0.0256192100000000 O
   0.4717891699999999    0.9691907600000003    0.5150907200000000 O
   0.9170746800000001    0.4406343100000000    0.8970599200000000 O
   0.9412691699999998    0.0042471900000000    0.4701719400000001 O
   0.8740015799999998    0.2882980700000001    0.4557089600000001 O
   0.0222128300000000    0.5967875200000001    0.5276625400000000 O
   0.2336493700000000    0.7827160900000001    0.6760381900000000 O
