In6 Te9
1.0
  -6.5882899999999998    6.5882899999999998    3.8238750000000001
   6.5882899999999998   -6.5882899999999998    3.8238750000000001
   6.5882899999999998    6.5882899999999998   -3.8238750000000001
In Te
6 9
direct
   0.4771200000000000    0.9771200000000000    0.5000000000000000 In
   0.9771200000000000    0.4771199999999999    0.5000000000000000 In
   0.5014090000000001    0.6781860000000001    0.1767770000000000 In
   0.5014090000000001    0.3246330000000001    0.8232230000000001 In
   0.6781860000000001    0.5014090000000001    0.1767770000000000 In
   0.3246330000000001    0.5014090000000001    0.8232230000000001 In
   0.8244350000000001    0.8244350000000001    0.0000000000000000 Te
   0.5884500000000001    0.9168020000000000    0.0000000000000000 Te
   0.9168020000000000    0.5884500000000000   -0.0000000000000000 Te
   0.5884500000000001    0.5884500000000001    0.6716480000000001 Te
   0.9168020000000001    0.9168020000000001    0.3283520000000000 Te
   0.2387960000000001    0.5748310000000001    0.3360350000000000 Te
   0.2387960000000000    0.9027610000000000    0.6639650000000000 Te
   0.5748310000000001    0.2387960000000000    0.3360350000000000 Te
   0.9027610000000000    0.2387960000000000    0.6639650000000000 Te
