Ta10 N12
1.0
   3.2788430000000002   -5.6791219999999996    0.0000000000000000
   3.2788430000000002    5.6791219999999996    0.0000000000000000
   0.0000000000000000    0.0000000000000000    6.5499000000000001
Ta N
10 12
direct
   0.6666669999999999    0.3333330000000000    0.5000000000000000 Ta
   0.7589310000000000   -0.0000000000000001    0.7499999999999999 Ta
  -0.0000000000000000    0.2410690000000000    0.2500000000000000 Ta
   0.7589309999999999    0.7589310000000000    0.2500000000000000 Ta
   0.3333329999999999    0.6666670000000000    0.0000000000000000 Ta
   0.6666669999999999    0.3333330000000000    0.0000000000000000 Ta
   0.2410690000000000    0.2410690000000000    0.7499999999999999 Ta
  -0.0000000000000001    0.7589310000000001    0.7499999999999999 Ta
   0.2410690000000000   -0.0000000000000000    0.2500000000000000 Ta
   0.3333329999999999    0.6666670000000000    0.5000000000000000 Ta
  -0.0000000000000001    0.6705830000000000    0.0699980000000000 N
  -0.0000000000000001    0.6705830000000000    0.4300020000000000 N
  -0.0000000000000001    0.3294170000000000    0.5699980000000000 N
  -0.0000000000000001    0.3294170000000000    0.9300019999999999 N
   0.3294169999999999    0.3294170000000000    0.4300020000000000 N
   0.3294169999999999    0.3294170000000000    0.0699980000000000 N
   0.3294170000000000   -0.0000000000000000    0.5699980000000000 N
   0.3294170000000000   -0.0000000000000000    0.9300019999999999 N
   0.6705829999999999    0.6705830000000000    0.5699980000000000 N
   0.6705829999999999    0.6705830000000000    0.9300019999999999 N
   0.6705830000000000   -0.0000000000000000    0.0699980000000000 N
   0.6705830000000000   -0.0000000000000000    0.4300020000000000 N
