Mg4 Si8
1.0
   3.6974010000000002    0.0000000000000000    0.0000000000000000
   1.7689159999999999    5.0298140000000000    0.0000000000000000
   0.2886360000000000    0.4748740000000000   11.9318500000000007
Mg Si
4 8
direct
   0.4089210000000000    0.0698260000000000    0.8644190000000000 Mg
   0.0566110000000000    0.7069000000000000    0.0725560000000000 Mg
   0.4631999999999999    0.7865270000000000    0.3070570000000000 Mg
   0.7306489999999999    0.4477660000000001    0.6819420000000000 Mg
   0.7388810000000000    0.3038050000000000    0.1938090000000000 Si
   0.1073430000000000    0.6671870000000000    0.8260720000000000 Si
   0.0686960000000000    0.8298360000000000    0.5320390000000000 Si
   0.7595350000000000    0.1846180000000000    0.3892770000000000 Si
   0.7000920000000000    0.4603179999999999    0.9280950000000000 Si
   0.3281100000000000    0.1315710000000000    0.0966550000000000 Si
   0.1682889999999999    0.3810130000000000    0.4801370000000000 Si
   0.4700090000000000    0.0304050000000000    0.6281730000000000 Si
