Ga3 Au1
1.0
  -2.1184580000000000    2.1184580000000000    4.1058219999999999
   2.1184580000000000   -2.1184580000000000    4.1058219999999999
   2.1184580000000000    2.1184580000000000   -4.1058219999999999
Ga Au
3 1
direct
   0.7499999999999999    0.2500000000000001    0.4999999999999999 Ga
   0.2500000000000000    0.7499999999999999    0.4999999999999999 Ga
   0.5000000000000000    0.5000000000000000    0.0000000000000000 Ga
   0.0000000000000000    0.0000000000000000    0.0000000000000000 Au
