La10 Pb6
1.0
   4.8346859999999996   -8.3739209999999993    0.0000000000000000
   4.8346859999999996    8.3739209999999993    0.0000000000000000
   0.0000000000000000    0.0000000000000000    7.0044899999999997
La Pb
10 6
direct
   0.6666670000000000    0.3333330000000000    0.5000000000000000 La
   0.3333330000000000    0.6666670000000000    0.5000000000000000 La
   0.3333330000000000    0.6666670000000000    0.0000000000000000 La
   0.6666670000000000    0.3333330000000000    0.0000000000000000 La
   0.7533750000000000    0.7533750000000000    0.2500000000000000 La
   0.2466250000000000   -0.0000000000000000    0.2500000000000000 La
  -0.0000000000000000    0.2466250000000000    0.2500000000000000 La
   0.2466250000000000    0.2466250000000000    0.7499999999999999 La
   0.7533750000000000    0.0000000000000000    0.7499999999999999 La
   0.0000000000000000    0.7533750000000000    0.7499999999999999 La
   0.3894200000000000    0.3894200000000000    0.2500000000000000 Pb
   0.6105800000000000   -0.0000000000000000    0.2500000000000000 Pb
  -0.0000000000000000    0.6105800000000000    0.2500000000000000 Pb
   0.6105800000000000    0.6105800000000000    0.7499999999999999 Pb
   0.3894200000000000   -0.0000000000000000    0.7499999999999999 Pb
  -0.0000000000000000    0.3894200000000000    0.7499999999999999 Pb
