Nb4 I20
1.0
   6.5914039999999998    0.0000000000000000    0.0000000000000000
   0.0000000000000000   11.0602370000000008    0.0000000000000000
   0.0000000000000000    5.1420690000000002   14.3893079999999998
Nb I
4 20
direct
   0.4996130000000000    0.2123919999999999    0.6969530000000000 Nb
   0.9996130000000000    0.7876080000000001    0.8030470000000000 Nb
   0.5003870000000000    0.7876080000000000    0.3030470000000000 Nb
   0.0003870000000000    0.2123919999999999    0.1969530000000000 Nb
   0.7490540000000000    0.9995429999999998    0.6715449999999999 I
   0.2490540000000000    0.0004570000000000    0.8284550000000002 I
   0.2509460000000000    0.0004570000000000    0.3284550000000000 I
   0.7509460000000000    0.9995430000000000    0.1715450000000000 I
   0.7283910000000000    0.1866560000000000    0.8496490000000000 I
   0.2283910000000000    0.8133440000000001    0.6503510000000000 I
   0.2716090000000000    0.8133440000000001    0.1503510000000000 I
   0.7716090000000001    0.1866560000000000    0.3496490000000000 I
   0.7505510000000001    0.3819460000000000    0.5804480000000000 I
   0.2505510000000001    0.6180540000000001    0.9195520000000000 I
   0.2494490000000000    0.6180540000000000    0.4195520000000000 I
   0.7494490000000001    0.3819460000000001    0.0804480000000000 I
   0.7465320000000001    0.6177520000000001    0.7703630000000000 I
   0.2465320000000000    0.3822479999999999    0.7296370000000000 I
   0.2534680000000000    0.3822480000000000    0.2296370000000000 I
   0.7534680000000001    0.6177519999999999    0.2703630000000000 I
   0.7700280000000000    0.8162709999999999    0.9420700000000000 I
   0.2700280000000000    0.1837289999999999    0.5579300000000000 I
   0.2299720000000000    0.1837290000000000    0.0579300000000000 I
   0.7299720000000000    0.8162710000000000    0.4420700000000001 I
