Ce4 Se8
1.0
   8.4888309999999993    0.0000000000000000    0.0000000000000000
   1.0065139999999999    8.8081259999999997    0.0000000000000000
   3.4987699999999999    3.8718129999999999   10.4025580000000009
Ce Se
4 8
direct
   0.8658700000000003    0.6996350000000000    0.2361110000000000 Ce
   0.3830830000000000    0.7160459999999998    0.5927090000000000 Ce
   0.4440200000000000    0.6314360000000000    0.0463290000000000 Ce
   0.1742230000000000    0.2809900000000000    0.4554440000000000 Ce
   0.8924940000000000    0.3876810000000000    0.3859240000000000 Se
   0.1595410000000001    0.9593560000000001    0.5984380000000000 Se
   0.7339610000000001    0.7376560000000000    0.0418680000000000 Se
   0.4063540000000000    0.3322750000000000    0.2277510000000000 Se
   0.1811589999999999    0.8117119999999999    0.1249110000000000 Se
   0.6567010000000000    0.8389209999999999    0.3974090000000000 Se
   0.2483260000000000    0.4641210000000001    0.5753300000000000 Se
   0.4687190000000001    0.6086310000000000    0.8150969999999998 Se
