Ti6 Pd2
1.0
   5.0624019999999996    0.0000000000000000    0.0000000000000000
   0.0000000000000000    5.0624019999999996    0.0000000000000000
   0.0000000000000000    0.0000000000000000    5.0624019999999996
Ti Pd
6 2
direct
   0.0000000000000000    0.5000000000000000    0.7500000000000001 Ti
   0.5000000000000000    0.2500000000000000    0.0000000000000000 Ti
   0.7500000000000001    0.0000000000000000    0.5000000000000000 Ti
   0.0000000000000000    0.5000000000000000    0.2500000000000000 Ti
   0.5000000000000000    0.7500000000000001    0.0000000000000000 Ti
   0.2500000000000000    0.0000000000000000    0.5000000000000000 Ti
   0.5000000000000000    0.5000000000000000    0.5000000000000000 Pd
   0.0000000000000000    0.0000000000000000    0.0000000000000000 Pd
