Ba2 Ag4
1.0
  -2.5315620000000001    4.1309839999999998    4.2553619999999999
   2.5315620000000001   -4.1309839999999998    4.2553619999999999
   2.5315620000000001    4.1309839999999998   -4.2553619999999999
Ba Ag
2 4
direct
   0.2107269999999999    0.9607270000000000    0.2499999999999999 Ba
   0.7892730000000000    0.0392730000000000    0.7500000000000000 Ba
   0.2177960000000000    0.6642680000000000    0.5535280000000000 Ag
   0.7822040000000000    0.3357320000000000    0.4464720000000000 Ag
   0.3892600000000000    0.3357320000000000    0.0535280000000000 Ag
   0.6107399999999999    0.6642680000000000    0.9464720000000000 Ag
