Fe32 O48
1.0
   8.6397946200000000   -0.3421324500000000   -0.1311548000000000
  -0.2945361500000000   10.9310696600000004    0.0843599300000000
  -0.1757609000000000    0.0405985100000000   10.3734340300000003
Fe O
32 48
direct
   0.6369718800000002    0.9314374600000003    0.0495162700000000 Fe
   0.3006216799999999    0.9282604000000001    0.5286407300000000 Fe
   0.9426429800000001    0.7596015299999999    0.5950050500000000 Fe
   0.5367941700000000    0.1760688000000000    0.5446552199999999 Fe
   0.6780062200000000    0.3832251500000001    0.2325414000000000 Fe
   0.2875396299999999    0.4251562300000000    0.5695749599999999 Fe
   0.4173353399999999    0.1935200700000000    0.7918102500000000 Fe
   0.6166477900000000    0.5966505900000000    0.0493780200000000 Fe
   0.0680267700000000    0.0483303600000000    0.6642939399999999 Fe
   0.3478587499999999    0.4262474500000001    0.9022650299999999 Fe
   0.9258368300000001    0.0817955400000000    0.0728494400000000 Fe
   0.7241594800000000    0.9934582399999999    0.8052388299999998 Fe
   0.6379973400000001    0.5387923100000001    0.7856184499999997 Fe
   0.1714986000000000    0.1912230000000000    0.3655340000000000 Fe
   0.3020033900000001    0.4774828000000000    0.2442024500000000 Fe
   0.3015102200000000    0.9678984000000002    0.9192896300000000 Fe
   0.2298218500000000    0.2068937500000000    0.0314464800000000 Fe
   0.6873113800000000    0.4727902700000000    0.5344320500000000 Fe
   0.4160214000000000    0.6826839199999999    0.4987965699999999 Fe
   0.0167931900000000    0.4379136100000001    0.0669507900000000 Fe
   0.8048630800000000    0.7978795299999999    0.2743589900000000 Fe
   0.0012897400000000    0.5072237900000000    0.4187950899999999 Fe
   0.1282821100000000    0.7030327700000001    0.2844088100000000 Fe
   0.4673278099999999    0.0944081100000000    0.2700749700000000 Fe
   0.7611031600000000    0.2913069600000000    0.9380691900000000 Fe
   0.2387161100000000    0.6644713000000001    0.8561755999999999 Fe
   0.9493468200000001    0.7555237000000000    0.9725655999999998 Fe
   0.8986480600000001    0.2615196500000000    0.6386872499999999 Fe
   0.8356604600000002    0.0685616200000000    0.3608865299999999 Fe
   0.4487795700000001    0.7861586100000000    0.2419770200000000 Fe
   0.0031468700000000    0.5118509700000001    0.7417672099999999 Fe
   0.6573222999999999    0.8833375900000001    0.5233859399999999 Fe
   0.7100954000000002    0.2988404700000000    0.5462814100000000 O
   0.8628187600000000    0.3686416000000000    0.7884835800000000 O
   0.4985942700000000    0.5371613600000001    0.5897822999999999 O
   0.9735304300000001    0.2654756500000001    0.0268657700000000 O
   0.7813056500000000    0.4756803900000000    0.3714530999999999 O
   0.7886509500000000    0.9728074499999999    0.1971872100000000 O
   0.3419506999999999    0.0869202000000000    0.4392817800000000 O
   0.2731442800000000    0.0408182500000000    0.7395140999999998 O
   0.3023318000000000    0.6579881100000000    0.1854473500000000 O
   0.2424324800000000    0.4941215600000000    0.7486728599999999 O
   0.6332280999999998    0.2173818700000000    0.2670796000000000 O
   0.7274164099999999    0.1147217500000000    0.9725332799999999 O
   0.4422748700000000    0.5976118300000000    0.9186521299999999 O
   0.0143042900000000    0.1533114900000000    0.5125380499999999 O
   0.2319757600000000    0.2716489800000000    0.8606938899999999 O
   0.9032642100000000    0.1123550600000000    0.7470495599999999 O
   0.4107492600000000    0.1304822400000000    0.9726113099999999 O
   0.2480596400000000    0.3951224300000001    0.0738203800000000 O
   0.8132023600000000    0.5831207500000000    0.6441316599999999 O
   0.5855254400000001    0.1076504300000000    0.7102751499999999 O
   0.2894135300000000    0.8154974200000000    0.3773059400000000 O
   0.0645071200000000    0.5021839100000000    0.2410315299999999 O
   0.6306459699999999    0.0446208100000000    0.4448237200000000 O
   0.2448503900000000    0.5720311099999998    0.4432915700000000 O
   0.9699373899999999    0.7550223600000000    0.1632678500000000 O
   0.7844457799999999    0.8631742999999998    0.6758282200000000 O
   0.0972977300000000    0.8980870399999999    0.5808963000000000 O
   0.3881992100000000    0.2789848100000000    0.6231760700000000 O
   0.0883560500000000    0.6824654600000001    0.7083101500000000 O
   0.5173664999999998    0.9140360199999999    0.8928494599999998 O
   0.7758141000000000    0.4303383499999999    0.0716965400000000 O
   0.2737722600000000    0.3520334800000001    0.3858890400000000 O
   0.5540710400000000    0.3649813100000000    0.8656573599999999 O
   0.8540432999999998    0.8965841100000000    0.4262401199999999 O
   0.1226341000000000    0.0473727300000000    0.0063263000000000 O
   0.8397470500000001    0.9069422000000000    0.9517016899999998 O
   0.9887847200000001    0.1501067700000000    0.2577764100000000 O
   0.0591120400000000    0.5673291599999999    0.9362969099999999 O
   0.2904976599999999    0.1744166700000000    0.2059642600000000 O
   0.5946519699999998    0.7465640500000001    0.3922422300000000 O
   0.4589859800000000    0.9483922500000002    0.1685492600000000 O
   0.9685923499999999    0.6835658400000000    0.4193257000000000 O
   0.0373107900000000    0.4081759600000000    0.5742724899999999 O
   0.4535683500000000    0.8275822799999999    0.6031521899999999 O
   0.6338428900000002    0.7551041100000000    0.1375501700000000 O
   0.5210042300000001    0.4933351000000000    0.1944265200000000 O
   0.1741064700000000    0.8104040500000000    0.9303152900000000 O
   0.7657539799999998    0.6459489800000000    0.9232394499999999 O
