I12 N4
1.0
   8.6591410000000000    0.0000000000000000    0.0000000000000000
   0.0000000000000000    9.0725680000000004    0.0000000000000000
   0.0000000000000000    0.0000000000000000   11.0269840000000006
I N
12 4
direct
   0.7500000000000001    0.3603910000000000    0.2536540000000000 I
   0.7500000000000001    0.8603910000000000    0.2463460000000000 I
   0.2500000000000000    0.6396090000000001    0.7463460000000001 I
   0.2500000000000000    0.1396090000000000    0.7536540000000002 I
   0.7500000000000001    0.1337240000000000    0.9190810000000001 I
   0.7500000000000001    0.6337240000000000    0.5809190000000000 I
   0.2500000000000000    0.8662760000000000    0.0809190000000000 I
   0.2500000000000000    0.3662760000000000    0.4190810000000000 I
   0.7500000000000001    0.8887830000000000    0.7492840000000000 I
   0.7500000000000001    0.3887830000000000    0.7507160000000000 I
   0.2500000000000000    0.1112170000000000    0.2507160000000000 I
   0.2500000000000000    0.6112170000000000    0.2492840000000000 I
   0.7500000000000001    0.6952600000000001    0.1311730000000000 N
   0.7500000000000001    0.1952600000000000    0.3688270000000000 N
   0.2500000000000000    0.3047400000000000    0.8688270000000000 N
   0.2500000000000000    0.8047400000000000    0.6311730000000000 N
