Li6 Mg2
1.0
   3.0636320000000001   -5.3063659999999997    0.0000000000000000
   3.0636320000000001    5.3063659999999997    0.0000000000000000
   0.0000000000000000    0.0000000000000000    4.9155379999999997
Li Mg
6 2
direct
   0.3277670000000000    0.1638840000000000    0.2500000000000000 Li
   0.8361160000000000    0.1638840000000000    0.2500000000000000 Li
   0.8361160000000000    0.6722330000000000    0.2500000000000000 Li
   0.6722330000000000    0.8361160000000000    0.7500000000000000 Li
   0.1638840000000000    0.3277670000000000    0.7500000000000000 Li
   0.1638840000000000    0.8361160000000000    0.7500000000000000 Li
   0.3333330000000000    0.6666670000000000    0.2500000000000000 Mg
   0.6666670000000000    0.3333330000000000    0.7500000000000000 Mg
