Sm1 Er3
1.0
  -2.5026329999999999    2.5026329999999999    4.9870919999999996
   2.5026329999999999   -2.5026329999999999    4.9870919999999996
   2.5026329999999999    2.5026329999999999   -4.9870919999999996
Sm Er
1 3
direct
   0.0000000000000000    0.0000000000000000    0.0000000000000000 Sm
   0.7500000000000001    0.2499999999999999    0.5000000000000000 Er
   0.2499999999999999    0.7500000000000000    0.5000000000000001 Er
   0.4999999999999999    0.4999999999999999    0.0000000000000000 Er
