Cd12 I24
1.0
   2.1675239999999998   -3.7542620000000002    0.0000000000000000
   2.1675239999999998    3.7542620000000002    0.0000000000000000
   0.0000000000000000    0.0000000000000000   91.8721199999999953
Cd I
12 24
direct
   0.0000000000000000    0.0000000000000000    0.0208640000000000 Cd
   0.0000000000000000    0.0000000000000000    0.1875260000000000 Cd
   0.3333330000000000    0.6666670000000000    0.1041540000000000 Cd
   0.3333330000000000    0.6666670000000000    0.6041550000000000 Cd
   0.3333330000000000    0.6666670000000000    0.8541740000000000 Cd
   0.3333330000000000    0.6666670000000000    0.5208429999999999 Cd
   0.0000000000000000    0.0000000000000000    0.7708170000000000 Cd
   0.3333330000000000    0.6666670000000000    0.2708180000000000 Cd
   0.3333330000000000    0.6666670000000000    0.3541640000000000 Cd
   0.0000000000000000    0.0000000000000000    0.4374980000000001 Cd
   0.3333330000000000    0.6666670000000000    0.9374970000000000 Cd
   0.3333330000000000    0.6666670000000000    0.6875070000000000 Cd
   0.3333330000000000    0.6666670000000000    0.1687620000000000 I
   0.0000000000000000    0.0000000000000000    0.5854120000000002 I
   0.6666670000000000    0.3333330000000000    0.7895690000000000 I
   0.0000000000000000    0.0000000000000000    0.3354210000000000 I
   0.3333330000000000    0.6666670000000000    0.4187320000000000 I
   0.0000000000000000    0.0000000000000000    0.0854130000000000 I
   0.6666670000000000    0.3333330000000000    0.4562510000000001 I
   0.6666670000000000    0.3333330000000000    0.2062720000000000 I
   0.6666670000000000    0.3333330000000000    0.9562400000000001 I
   0.0000000000000000    0.0000000000000000    0.8354290000000001 I
   0.0000000000000000    0.0000000000000000    0.9187590000000001 I
   0.0000000000000000    0.0000000000000000    0.5020990000000000 I
   0.6666670000000000    0.3333330000000000    0.5395860000000000 I
   0.6666670000000000    0.3333330000000000    0.1229000000000000 I
   0.6666670000000000    0.3333330000000000    0.0396100000000000 I
   0.3333330000000000    0.6666670000000000    0.0021000000000000 I
   0.6666670000000000    0.3333330000000000    0.2895640000000000 I
   0.6666670000000000    0.3333330000000000    0.3729050000000000 I
   0.6666670000000000    0.3333330000000000    0.6229040000000000 I
   0.6666670000000000    0.3333330000000000    0.7062490000000000 I
   0.3333330000000000    0.6666670000000000    0.7520490000000001 I
   0.0000000000000000    0.0000000000000000    0.6687630000000000 I
   0.0000000000000000    0.0000000000000000    0.2520770000000000 I
   0.6666670000000000    0.3333330000000000    0.8729170000000002 I
