S24
1.0
   5.6634690000000001    0.0000000000000000    0.0000000000000000
   0.0000000000000000    9.6324889999999996    0.0000000000000000
   0.0000000000000000    0.0000000000000000   15.7104590000000002
S
24
direct
   0.0094550000000000    0.3036510000000001    0.8927760000000000 S
   0.4999999999999999    0.5000000000000000    0.2861270000000000 S
   0.1902620000000000    0.7366240000000001    0.0000000000000000 S
   0.9905449999999999    0.6963490000000001    0.1072240000000000 S
   0.7995910000000001    0.8727070000000001    0.8634350000000000 S
   0.4905450000000000    0.8036510000000000    0.6072240000000000 S
   0.2995910000000000    0.6272930000000001    0.6365650000000000 S
   0.4999999999999999    0.5000000000000000    0.7138730000000000 S
   0.5094550000000000    0.1963490000000000    0.3927760000000001 S
   0.4905450000000000    0.8036510000000000    0.3927760000000001 S
   0.2995910000000000    0.6272930000000001    0.3634350000000000 S
   0.7004089999999999    0.3727070000000000    0.3634350000000000 S
   0.3097380000000000    0.2366240000000000    0.5000000000000000 S
   0.0000000000000000    0.0000000000000000    0.2138730000000000 S
   0.0000000000000000    0.0000000000000000    0.7861270000000000 S
   0.2004090000000000    0.1272930000000000    0.1365650000000000 S
   0.5094550000000000    0.1963490000000000    0.6072240000000000 S
   0.9905449999999999    0.6963490000000001    0.8927760000000000 S
   0.2004090000000000    0.1272930000000000    0.8634350000000000 S
   0.7004089999999999    0.3727070000000000    0.6365650000000000 S
   0.6902620000000000    0.7633760000000001    0.5000000000000000 S
   0.7995910000000001    0.8727070000000001    0.1365650000000000 S
   0.0094550000000000    0.3036510000000001    0.1072240000000000 S
   0.8097379999999998    0.2633760000000000    0.0000000000000000 S
