Cs1 Rb3
1.0
   7.2838139999999996    0.0000000000000000    0.0000000000000000
   0.0000000000000000    7.2838139999999996    0.0000000000000000
   0.0000000000000000    0.0000000000000000    7.2838139999999996
Cs Rb
1 3
direct
   0.0000000000000000    0.0000000000000000    0.0000000000000000 Cs
   0.0000000000000000    0.4999999999999999    0.4999999999999999 Rb
   0.4999999999999999    0.0000000000000000    0.4999999999999999 Rb
   0.4999999999999999    0.4999999999999999    0.0000000000000000 Rb
