Pr2 Au2
1.0
   1.9650270000000001   -5.7267630000000000    0.0000000000000000
   1.9650270000000001    5.7267630000000000    0.0000000000000000
   0.0000000000000000    0.0000000000000000    4.8450970000000000
Pr Au
2 2
direct
   0.8620710000000001    0.1379289999999999    0.7500000000000001 Pr
   0.1379290000000001    0.8620710000000000    0.2500000000000000 Pr
   0.5852120000000001    0.4147879999999999    0.7500000000000001 Au
   0.4147880000000001    0.5852120000000000    0.2500000000000000 Au
