Mg1 Ag3
1.0
   4.1704330000000001    0.0000000000000000    0.0000000000000000
   0.0000000000000000    4.1704330000000001    0.0000000000000000
   0.0000000000000000    0.0000000000000000    4.1704330000000001
Mg Ag
1 3
direct
   0.0000000000000000    0.0000000000000000    0.0000000000000000 Mg
   0.5000000000000000    0.5000000000000000    0.0000000000000000 Ag
   0.5000000000000000    0.0000000000000000    0.5000000000000000 Ag
   0.0000000000000000    0.5000000000000000    0.5000000000000000 Ag
