Sc1 Zn12
1.0
  -4.4178069999999998    4.4178069999999998    2.5728900000000001
   4.4178069999999998   -4.4178069999999998    2.5728900000000001
   4.4178069999999998    4.4178069999999998   -2.5728900000000001
Sc Zn
1 12
direct
   0.0000000000000000    0.0000000000000000    0.0000000000000000 Sc
  -0.0000000000000000    0.5000000000000000    0.0000000000000000 Zn
   0.5000000000000000    0.5000000000000000    0.5000000000000000 Zn
   0.0000000000000000    0.0000000000000000    0.5000000000000000 Zn
   0.5000000000000000   -0.0000000000000000   -0.0000000000000000 Zn
   0.3518740000000000    0.0000000000000000    0.3518740000000000 Zn
  -0.0000000000000000    0.6481260000000000    0.6481260000000000 Zn
  -0.0000000000000000    0.3518740000000000    0.3518740000000000 Zn
   0.6481260000000000    0.0000000000000000    0.6481260000000000 Zn
   0.2881280000000000    0.5000000000000000    0.7881280000000001 Zn
   0.5000000000000000    0.7118719999999999    0.2118720000000000 Zn
   0.5000000000000000    0.2881280000000000    0.7881279999999999 Zn
   0.7118719999999999    0.5000000000000000    0.2118720000000000 Zn
