Mg4 Si8
1.0
   1.8775109999999999    5.4695000000000000    0.0000000000000000
  -1.8775109999999999    5.4695000000000000    0.0000000000000000
   0.0000000000000000    3.9149349999999998   10.8589230000000008
Mg Si
4 8
direct
   0.2251380000000000    0.2251380000000000    0.1741920000000000 Mg
   0.1525840000000000    0.1525840000000000    0.8387170000000000 Mg
   0.7748640000000001    0.7748640000000002    0.5857490000000000 Mg
   0.5147119999999999    0.5147119999999999    0.3728800000000000 Mg
   0.8069490000000000    0.8069490000000002    0.9642430000000000 Si
   0.5802649999999999    0.5802650000000000    0.1007430000000000 Si
   0.8409410000000000    0.8409410000000000    0.3264690000000000 Si
   0.0731970000000000    0.0731970000000000    0.6285630000000000 Si
   0.9430509999999999    0.9430509999999999    0.1014640000000000 Si
   0.4243020000000001    0.4243020000000001    0.8516850000000000 Si
   0.4298409999999999    0.4298410000000000    0.6430950000000000 Si
   0.1990050000000000    0.1990050000000000    0.4120590000000000 Si
