Na1 Ag3
1.0
  -2.1209560000000001    2.1209560000000001    4.2973809999999997
   2.1209560000000001   -2.1209560000000001    4.2973809999999997
   2.1209560000000001    2.1209560000000001   -4.2973809999999997
Na Ag
1 3
direct
   0.0000000000000000    0.0000000000000000    0.0000000000000000 Na
   0.7500000000000001    0.2499999999999999    0.5000000000000001 Ag
   0.2499999999999999    0.7500000000000001    0.5000000000000001 Ag
   0.5000000000000000    0.5000000000000000    0.0000000000000000 Ag
