Nd2 Fe17
1.0
   4.8392130000000000   -4.2914649999999996    0.0000000000000000
   4.8392130000000000    4.2914649999999996    0.0000000000000000
   1.0334980000000000    0.0000000000000000    6.3848680000000000
Nd Fe
2 17
direct
   0.6580899999999998    0.6580900000000001    0.6580900000000001 Nd
   0.3419099999999999    0.3419100000000000    0.3419100000000000 Nd
   0.0000000000000000    0.0000000000000000    0.5000000000000000 Fe
   0.5000000000000000    0.0000000000000000    0.0000000000000000 Fe
  -0.0000000000000000    0.5000000000000001    0.0000000000000000 Fe
   0.7105550000000002    0.2894450000000002    0.0000000000000000 Fe
  -0.0000000000000000    0.7105550000000003    0.2894450000000000 Fe
   0.2894450000000000    0.0000000000000000    0.7105550000000000 Fe
  -0.0000000000000000    0.2894450000000001    0.7105550000000000 Fe
   0.7105550000000000    0.0000000000000001    0.2894450000000000 Fe
   0.2894450000000001    0.7105550000000003    0.0000000000000000 Fe
   0.3413640000000000    0.3413640000000001    0.8460890000000000 Fe
   0.8460889999999999    0.3413640000000002    0.3413640000000001 Fe
   0.3413640000000000    0.8460890000000002    0.3413640000000001 Fe
   0.6586359999999999    0.6586360000000001    0.1539110000000000 Fe
   0.1539110000000000    0.6586360000000001    0.6586360000000000 Fe
   0.6586360000000000    0.1539110000000000    0.6586360000000000 Fe
   0.9029959999999999    0.9029960000000001    0.9029960000000000 Fe
   0.0970040000000000    0.0970040000000000    0.0970040000000000 Fe
