Mg4 Zn2
1.0
   1.5441000000000000   -2.6744599999999998    0.0000000000000000
   1.5441000000000000    2.6744599999999998    0.0000000000000000
   0.0000000000000000    0.0000000000000000   14.5265509999999995
Mg Zn
4 2
direct
   0.6666670000000000    0.3333330000000000    0.9081770000000000 Mg
   0.6666670000000000    0.3333330000000000    0.5918230000000001 Mg
   0.3333330000000000    0.6666670000000000    0.4081770000000001 Mg
   0.3333330000000000    0.6666670000000000    0.0918230000000000 Mg
   0.3333330000000000    0.6666670000000000    0.7500000000000000 Zn
   0.6666670000000000    0.3333330000000000    0.2500000000000000 Zn
