Mg12 Si10
1.0
   4.2608850000000000    0.0000000000000000    0.0000000000000000
  -0.1137350000000000    7.2045399999999997    0.0000000000000000
  -0.2737600000000000   -3.3463930000000000   13.8621580000000009
Mg Si
12 10
direct
   0.4189680000000000    0.5500769999999999    0.0539450000000000 Mg
   0.4609840000000000    0.2400470000000000    0.4445859999999999 Mg
   0.9115529999999998    0.7422270000000000    0.7468479999999998 Mg
   0.4349130000000000    0.0100590000000000    0.2206010000000000 Mg
   0.4376170000000001    0.5325740000000000    0.2921929999999999 Mg
   0.3961420000000000    0.3973360000000000    0.7865599999999999 Mg
   0.0147470000000000    0.0219220000000000    0.5925950000000000 Mg
   0.9553989999999999    0.5870340000000001    0.4733269999999999 Mg
   0.9261779999999999    0.3204820000000000    0.1449930000000000 Mg
   0.4096440000000000    0.8130060000000000    0.9023369999999999 Mg
   0.8955100000000001    0.1782430000000000    0.8977700000000000 Mg
   0.9196120000000000    0.8940310000000001    0.0569920000000000 Mg
   0.4458610000000001    0.8619769999999999    0.4410000000000000 Si
   0.5130230000000000    0.8236610000000000    0.6075340000000000 Si
   0.9062050000000000    0.5713960000000000    0.9086039999999999 Si
   0.9243780000000000    0.7110810000000000    0.1996020000000000 Si
   0.9471559999999999    0.2641790000000000    0.3246830000000000 Si
   0.4148880000000001    0.5121550000000000    0.6114740000000000 Si
   0.9131760000000000    0.3728639999999999    0.6242209999999999 Si
   0.9504730000000000    0.9334310000000000    0.3574550000000000 Si
   0.4165390000000000    0.1434000000000000    0.0423770000000000 Si
   0.3906010000000000    0.0151620000000000    0.7666829999999999 Si
