Dy2 Mn4
1.0
   0.0000000000000000    3.6105710000000002    3.6105710000000002
   3.6105710000000002    0.0000000000000000    3.6105710000000002
   3.6105710000000002    3.6105710000000002    0.0000000000000000
Dy Mn
2 4
direct
   0.0000000000000000    0.0000000000000000    0.0000000000000000 Dy
   0.2500000000000000    0.2500000000000000    0.2500000000000000 Dy
   0.6250000000000000    0.6250000000000000    0.6250000000000000 Mn
   0.1250000000000000    0.6250000000000000    0.6250000000000000 Mn
   0.6250000000000000    0.1250000000000000    0.6250000000000000 Mn
   0.6250000000000000    0.6250000000000000    0.1250000000000000 Mn
