Ce12 Se24
1.0
  10.6729380000000003  -18.4860709999999990    0.0000000000000000
  10.6729380000000003   18.4860709999999990    0.0000000000000000
   0.0000000000000000    0.0000000000000000    6.1008550000000001
Ce Se
12 24
direct
   0.5224950000000000    0.6533880000000000    0.8264140000000000 Ce
   0.3466119999999999    0.8691069999999999    0.8264140000000000 Ce
   0.1308930000000000    0.4775050000000000    0.8264140000000000 Ce
   0.4775050000000000    0.3466120000000000    0.8264140000000000 Ce
   0.6533880000000000    0.1308930000000001    0.8264140000000000 Ce
   0.8691070000000000    0.5224950000000000    0.8264140000000000 Ce
   0.6533880000000000    0.5224950000000000    0.1735860000000000 Ce
   0.8691069999999999    0.3466119999999999    0.1735860000000000 Ce
   0.4775050000000000    0.1308930000000000    0.1735860000000000 Ce
   0.3466120000000000    0.4775050000000000    0.1735860000000000 Ce
   0.1308930000000001    0.6533880000000000    0.1735860000000000 Ce
   0.5224950000000000    0.8691070000000000    0.1735860000000000 Ce
   0.7828720000000000    0.3914360000000001    0.0000000000000000 Se
   0.6085640000000000    0.3914360000000000    0.0000000000000000 Se
   0.6085640000000000    0.2171279999999999    0.0000000000000000 Se
   0.2171279999999999    0.6085640000000000    0.0000000000000000 Se
   0.3914360000000000    0.6085640000000000    0.0000000000000000 Se
   0.3914360000000001    0.7828720000000000    0.0000000000000000 Se
   0.0000000000000000    0.3833370000000000    0.0000000000000000 Se
   0.6166630000000000    0.6166630000000000    0.0000000000000000 Se
   0.3833370000000000    0.0000000000000000    0.0000000000000000 Se
   0.0000000000000000    0.6166630000000000    0.0000000000000000 Se
   0.3833370000000000    0.3833370000000000    0.0000000000000000 Se
   0.6166630000000000    0.0000000000000000    0.0000000000000000 Se
   0.7905380000000000    0.2094620000000001    0.0000000000000000 Se
   0.7905379999999999    0.5810760000000000    0.0000000000000000 Se
   0.4189240000000000    0.2094620000000000    0.0000000000000000 Se
   0.2094620000000001    0.7905380000000000    0.0000000000000000 Se
   0.2094620000000000    0.4189240000000000    0.0000000000000000 Se
   0.5810760000000000    0.7905379999999999    0.0000000000000000 Se
   0.8882139999999999    0.4441070000000000    0.5000000000000000 Se
   0.5558930000000000    0.4441070000000000    0.5000000000000000 Se
   0.5558930000000000    0.1117860000000000    0.5000000000000000 Se
   0.1117860000000000    0.5558930000000000    0.5000000000000000 Se
   0.4441070000000000    0.5558930000000000    0.5000000000000000 Se
   0.4441070000000000    0.8882139999999999    0.5000000000000000 Se
