C12 Cl24
1.0
   6.4346589999999999    0.0000000000000000    0.0000000000000000
   0.0000000000000000   11.3331900000000001    0.0000000000000000
   0.0000000000000000    4.9649729999999996   12.1134419999999992
C Cl
12 24
direct
   0.1708880000000000    0.6787470000000000    0.5102520000000000 C
   0.8291120000000000    0.3212530000000001    0.4897480000000000 C
   0.6708880000000002    0.3212529999999999    0.9897480000000001 C
   0.3291120000000000    0.6787470000000000    0.0102520000000000 C
   0.9628070000000001    0.7494660000000001    0.5053029999999999 C
   0.0371930000000000    0.2505340000000000    0.4946970000000000 C
   0.4628070000000000    0.2505340000000000    0.9946970000000002 C
   0.5371930000000001    0.7494660000000001    0.0053030000000000 C
   0.3296320000000000    0.8242990000000000    0.9832490000000002 C
   0.6703680000000000    0.1757010000000000    0.0167510000000000 C
   0.8296320000000000    0.1757010000000000    0.5167510000000000 C
   0.1703680000000000    0.8242990000000001    0.4832490000000000 C
   0.8282730000000001    0.7247260000000001    0.6275310000000001 Cl
   0.1717270000000000    0.2752740000000000    0.3724690000000000 Cl
   0.3282730000000000    0.2752740000000000    0.8724690000000002 Cl
   0.6717270000000000    0.7247260000000000    0.1275310000000000 Cl
   0.2708150000000000    0.9282670000000001    0.8490370000000002 Cl
   0.7291850000000001    0.0717330000000000    0.1509630000000000 Cl
   0.7708150000000000    0.0717330000000000    0.6509630000000000 Cl
   0.2291850000000000    0.9282670000000001    0.3490370000000000 Cl
   0.2628220000000000    0.5759070000000001    0.6384760000000000 Cl
   0.7371780000000001    0.4240930000000000    0.3615240000000001 Cl
   0.7628220000000000    0.4240930000000001    0.8615240000000001 Cl
   0.2371780000000000    0.5759070000000001    0.1384760000000000 Cl
   0.2058590000000000    0.2288370000000000    0.6046560000000000 Cl
   0.7941410000000001    0.7711630000000000    0.3953440000000000 Cl
   0.7058590000000000    0.7711629999999999    0.8953440000000001 Cl
   0.2941410000000000    0.2288370000000000    0.1046560000000000 Cl
   0.2705890000000000    0.6249960000000001    0.9051030000000001 Cl
   0.7294110000000000    0.3750039999999999    0.0948970000000000 Cl
   0.7705890000000001    0.3750040000000000    0.5948970000000000 Cl
   0.2294110000000000    0.6249960000000001    0.4051030000000000 Cl
   0.2606900000000000    0.8800000000000001    0.5822170000000001 Cl
   0.7393100000000000    0.1200000000000000    0.4177830000000000 Cl
   0.7606900000000001    0.1200000000000000    0.9177830000000001 Cl
   0.2393100000000000    0.8800000000000001    0.0822170000000000 Cl
