Ti4 Cu6
1.0
   3.1465529999999999    0.0000000000000000    0.0000000000000000
   0.0000000000000000    3.1465529999999999    0.0000000000000000
   0.0000000000000000    0.0000000000000000   13.9827080000000006
Ti Cu
4 6
direct
   0.5000000000000000    0.0000000000000000    0.4395280000000000 Ti
   0.5000000000000000    0.0000000000000000    0.8545240000000000 Ti
   0.0000000000000000    0.5000000000000000    0.5604720000000000 Ti
   0.0000000000000000    0.5000000000000000    0.1454760000000000 Ti
   0.5000000000000000    0.0000000000000000    0.0448410000000000 Cu
   0.5000000000000000    0.0000000000000000    0.2441590000000000 Cu
   0.5000000000000000    0.0000000000000000    0.6641209999999999 Cu
   0.0000000000000000    0.5000000000000000    0.7558410000000000 Cu
   0.0000000000000000    0.5000000000000000    0.9551590000000000 Cu
   0.0000000000000000    0.5000000000000000    0.3358790000000000 Cu
