Mg2 Sn4
1.0
   1.7003370000000000   -2.9450699999999999    0.0000000000000000
   1.7003370000000000    2.9450699999999999    0.0000000000000000
   0.0000000000000000    0.0000000000000000   15.3890560000000001
Mg Sn
2 4
direct
   0.3333330000000000    0.6666669999999999    0.7500000000000001 Mg
   0.6666670000000000    0.3333329999999999    0.2500000000000000 Mg
   0.6666670000000000    0.3333329999999999    0.9090260000000000 Sn
   0.6666670000000000    0.3333329999999999    0.5909740000000000 Sn
   0.3333330000000000    0.6666669999999999    0.4090260000000000 Sn
   0.3333330000000000    0.6666669999999999    0.0909740000000000 Sn
