Pm3 Tm1
1.0
  -2.5537899999999998    2.5537899999999998    5.1406440000000000
   2.5537899999999998   -2.5537899999999998    5.1406440000000000
   2.5537899999999998    2.5537899999999998   -5.1406440000000000
Pm Tm
3 1
direct
   0.7500000000000001    0.2500000000000000    0.5000000000000001 Pm
   0.2500000000000000    0.7500000000000001    0.5000000000000001 Pm
   0.5000000000000000    0.5000000000000000    0.0000000000000000 Pm
   0.0000000000000000    0.0000000000000000    0.0000000000000000 Tm
