Ba6 As28
1.0
  13.9499510000000004    0.0000000000000000    0.0000000000000000
   0.0000000000000000    6.9379090000000003    0.0000000000000000
   0.0000000000000000    6.9048629999999998   10.3952919999999995
Ba As
6 28
direct
   0.0000000000000000    0.0000000000000000    0.0000000000000000 Ba
   0.4999999999999999   -0.0000000000000000    0.5000000000000000 Ba
   0.8419879999999998    0.8031099999999999    0.3835070000000000 Ba
   0.3419880000000000    0.1968900000000000    0.1164930000000000 Ba
   0.1580120000000000    0.1968900000000000    0.6164930000000000 Ba
   0.6580119999999999    0.8031099999999998    0.8835070000000000 Ba
   0.4998089999999999    0.7127539999999999    0.1856310000000000 As
   0.9998089999999999    0.2872459999999999    0.3143690000000000 As
   0.5001909999999999    0.2872460000000000    0.8143690000000000 As
   0.0001910000000000    0.7127539999999999    0.6856310000000000 As
   0.6455650000000001    0.9625939999999999    0.1432110000000000 As
   0.1455650000000000    0.0374060000000000    0.3567890000000000 As
   0.3544349999999999    0.0374059999999999    0.8567890000000001 As
   0.8544349999999999    0.9625939999999998    0.6432110000000001 As
   0.4399009999999999    0.6088639999999997    0.8216390000000001 As
   0.9399010000000000    0.3911359999999998    0.6783610000000001 As
   0.5600990000000000    0.3911360000000000    0.1783610000000000 As
   0.0600990000000000    0.6088639999999998    0.3216390000000000 As
   0.8140790000000000    0.3521409999999999    0.9690760000000002 As
   0.3140790000000000    0.6478589999999997    0.5309240000000000 As
   0.1859210000000000    0.6478589999999999    0.0309240000000000 As
   0.6859210000000000    0.3521409999999999    0.4690760000000000 As
   0.9194800000000000    0.6845829999999998    0.8725220000000000 As
   0.4194800000000000    0.3154169999999999    0.6274780000000000 As
   0.0805200000000000    0.3154169999999999    0.1274780000000000 As
   0.5805200000000000    0.6845829999999999    0.3725220000000000 As
   0.7795260000000001    0.7468999999999999    0.1339570000000000 As
   0.2795260000000000    0.2531000000000000    0.3660430000000000 As
   0.2204740000000000    0.2531000000000000    0.8660430000000000 As
   0.7204739999999999    0.7468999999999999    0.6339570000000000 As
   0.7805960000000000    0.3482329999999998    0.7763310000000001 As
   0.2805960000000000    0.6517669999999998    0.7236690000000000 As
   0.2194040000000000    0.6517669999999999    0.2236690000000000 As
   0.7194040000000000    0.3482330000000001    0.2763310000000000 As
