Re6 Tc2
1.0
   2.7750699999999999   -4.8065619999999996    0.0000000000000000
   2.7750699999999999    4.8065619999999996    0.0000000000000000
   0.0000000000000000    0.0000000000000000    4.4843770000000003
Re Tc
6 2
direct
   0.1660620000000000    0.3321240000000000    0.2500000000000000 Re
   0.6678760000000000    0.8339380000000002    0.2500000000000000 Re
   0.1660620000000000    0.8339380000000001    0.2500000000000000 Re
   0.8339380000000002    0.6678760000000000    0.7500000000000000 Re
   0.3321240000000000    0.1660620000000000    0.7500000000000000 Re
   0.8339380000000001    0.1660620000000000    0.7500000000000000 Re
   0.3333330000000000    0.6666670000000000    0.7500000000000000 Tc
   0.6666670000000000    0.3333330000000000    0.2500000000000000 Tc
