Zn18 S18
1.0
   1.9269799999999999   -3.3376269999999999    0.0000000000000000
   1.9269799999999999    3.3376269999999999    0.0000000000000000
   0.0000000000000000    0.0000000000000000   56.6894449999999992
Zn S
18 18
direct
   0.0000000000000000    0.0000000000000000    0.1666680000000000 Zn
   0.6666669999999999    0.3333330000000000    0.2777740000000000 Zn
   0.0000000000000000    0.0000000000000000    0.3888910000000000 Zn
   0.3333329999999999    0.6666670000000001    0.3333440000000000 Zn
   0.3333329999999999    0.6666670000000001    0.0555610000000000 Zn
   0.3333329999999999    0.6666670000000001    0.6111250000000000 Zn
   0.6666669999999999    0.3333330000000000    0.1111130000000000 Zn
   0.0000000000000000    0.0000000000000000    0.0000130000000000 Zn
   0.6666669999999999    0.3333330000000000    0.4444430000000000 Zn
   0.3333329999999999    0.6666670000000001    0.2222170000000000 Zn
   0.0000000000000000    0.0000000000000000    0.5555580000000000 Zn
   0.0000000000000000    0.0000000000000000    0.7222190000000001 Zn
   0.6666669999999999    0.3333330000000000    0.7777920000000000 Zn
   0.6666669999999999    0.3333330000000000    0.9444390000000000 Zn
   0.3333329999999999    0.6666670000000001    0.8333330000000000 Zn
   0.6666669999999999    0.3333330000000000    0.6666620000000000 Zn
   0.3333329999999999    0.6666670000000001    0.4999959999999999 Zn
   0.0000000000000000    0.0000000000000000    0.8888860000000000 Zn
   0.6666669999999999    0.3333330000000000    0.7082980000000000 S
   0.3333329999999999    0.6666670000000001    0.8749990000000000 S
   0.3333329999999999    0.6666670000000001    0.5416339999999999 S
   0.0000000000000000    0.0000000000000000    0.0416680000000000 S
   0.6666669999999999    0.3333330000000000    0.4861070000000000 S
   0.0000000000000000    0.0000000000000000    0.9305219999999998 S
   0.0000000000000000    0.0000000000000000    0.5972600000000000 S
   0.6666669999999999    0.3333330000000000    0.1527790000000000 S
   0.3333329999999999    0.6666670000000001    0.0972280000000000 S
   0.6666669999999999    0.3333330000000000    0.9861430000000000 S
   0.6666669999999999    0.3333330000000000    0.8194449999999999 S
   0.0000000000000000    0.0000000000000000    0.4305570000000000 S
   0.3333329999999999    0.6666670000000001    0.2638540000000000 S
   0.3333329999999999    0.6666670000000001    0.6527750000000000 S
   0.3333329999999999    0.6666670000000001    0.3749960000000000 S
   0.0000000000000000    0.0000000000000000    0.7639230000000000 S
   0.6666669999999999    0.3333330000000000    0.3194760000000000 S
   0.0000000000000000    0.0000000000000000    0.2083300000000000 S
