C6 N8
1.0
   0.0000000000000000    3.3912480000000000    3.3912480000000000
   3.3912480000000000    0.0000000000000000    3.3912480000000000
   3.3912480000000000    3.3912480000000000    0.0000000000000000
C N
6 8
direct
   0.0000000000000000    0.0000000000000000    0.0000000000000000 C
   0.2500000000000000    0.2500000000000000    0.2500000000000001 C
   0.6250000000000001    0.1250000000000001    0.6250000000000001 C
   0.6250000000000001    0.6250000000000001    0.1250000000000000 C
   0.1250000000000001    0.6250000000000001    0.6250000000000001 C
   0.6250000000000001    0.6250000000000001    0.6250000000000001 C
   0.8691420000000001    0.3925740000000001    0.8691420000000002 N
   0.3808580000000001    0.3808580000000001    0.8574260000000004 N
   0.8574260000000001    0.3808580000000001    0.3808580000000001 N
   0.3808580000000000    0.3808580000000000    0.3808580000000000 N
   0.3925740000000002    0.8691420000000001    0.8691420000000002 N
   0.8691420000000002    0.8691420000000001    0.8691420000000001 N
   0.8691420000000001    0.8691420000000000    0.3925739999999999 N
   0.3808580000000001    0.8574260000000002    0.3808580000000001 N
