Cs4 C60
1.0
  -5.7619819999999997    6.0146350000000002    6.1501859999999997
   5.7619819999999997   -6.0146350000000002    6.1501859999999997
   5.7619819999999997    6.0146350000000002   -6.1501859999999997
Cs C
4 60
direct
   0.7076740000000000    0.4999999999999999    0.2076740000000000 Cs
   0.2923259999999999    0.4999999999999999    0.7923260000000000 Cs
   0.2595270000000000    0.7595269999999998    0.5000000000000000 Cs
   0.7404730000000000    0.2404730000000000    0.5000000000000000 Cs
   0.3495929999999999    0.0578330000000000    0.2917600000000000 C
   0.6504069999999998    0.9421669999999999    0.7082400000000000 C
   0.7660730000000000    0.0578329999999999    0.7082400000000001 C
   0.2339269999999999    0.9421669999999999    0.2917600000000000 C
   0.2831859999999999    0.3441480000000000    0.0609610000000000 C
   0.7168140000000000    0.6558519999999999    0.9390390000000000 C
   0.2831860000000000    0.2222250000000000    0.9390390000000000 C
   0.7168140000000000    0.7777750000000000    0.0609610000000001 C
   0.4056460000000000    0.2749869999999999    0.2556480000000000 C
   0.5943540000000000    0.7250130000000000    0.7443520000000001 C
   0.0193390000000000    0.1499990000000000    0.7443520000000001 C
   0.9806609999999999    0.7250129999999999    0.1306600000000000 C
   0.9806609999999999    0.8500009999999999    0.2556480000000000 C
   0.0193390000000000    0.2749869999999999    0.8693400000000001 C
   0.5943540000000000    0.8500010000000000    0.8693400000000000 C
   0.4056460000000000    0.1499990000000000    0.1306600000000000 C
   0.2760850000000000    0.2597990000000000    0.4173370000000000 C
   0.7239150000000000    0.7402009999999999    0.5826630000000000 C
   0.8424620000000000    0.8587489999999999    0.5826630000000000 C
   0.1575380000000000    0.7402009999999999    0.0162860000000000 C
   0.1575380000000000    0.1412509999999999    0.4173370000000000 C
   0.8424620000000000    0.2597990000000000    0.9837140000000001 C
   0.7239150000000001    0.1412510000000000    0.9837140000000001 C
   0.2760850000000000    0.8587489999999999    0.0162860000000000 C
   0.0593190000000000    0.3023080000000000    0.3616269999999999 C
   0.9406810000000000    0.6976919999999999    0.6383730000000000 C
   0.0593190000000000    0.6976919999999999    0.7570120000000001 C
   0.9406810000000000    0.3023080000000000    0.2429880000000000 C
   0.3457279999999999    0.3722869999999999    0.2226610000000000 C
   0.6542719999999999    0.6277129999999999    0.7773389999999999 C
   0.1496260000000000    0.1230660000000000    0.7773390000000000 C
   0.8503739999999999    0.6277129999999999    0.9734410000000000 C
   0.8503740000000000    0.8769340000000000    0.2226610000000000 C
   0.1496260000000000    0.3722869999999999    0.0265590000000000 C
   0.6542720000000000    0.8769340000000000    0.0265590000000000 C
   0.3457280000000000    0.1230660000000000    0.9734409999999999 C
   0.2151349999999999    0.3594559999999999    0.3834369999999999 C
   0.7848650000000000    0.6405439999999999    0.6165630000000000 C
   0.9760189999999999    0.8316979999999999    0.6165630000000000 C
   0.0239810000000000    0.6405439999999999    0.8556790000000000 C
   0.0239810000000000    0.1683020000000000    0.3834370000000000 C
   0.9760189999999999    0.3594560000000000    0.1443210000000000 C
   0.7848649999999999    0.1683020000000000    0.1443209999999999 C
   0.2151350000000000    0.8316979999999999    0.8556790000000000 C
   0.2494329999999999    0.4143639999999999    0.2855110000000000 C
   0.7505669999999999    0.5856359999999999    0.7144890000000000 C
   0.1288529999999999    0.9639209999999999    0.7144890000000000 C
   0.8711470000000000    0.5856360000000000    0.8350690000000000 C
   0.8711470000000000    0.0360790000000001    0.2855110000000000 C
   0.1288530000000000    0.4143640000000000    0.1649310000000000 C
   0.7505669999999999    0.0360790000000001    0.1649309999999999 C
   0.2494329999999999    0.9639209999999999    0.8350690000000000 C
   0.3694130000000000    0.2174670000000000    0.3544680000000000 C
   0.6305869999999999    0.7825329999999999    0.6455320000000000 C
   0.8629980000000000    0.0149440000000000    0.6455320000000001 C
   0.1370020000000000    0.7825330000000000    0.1519460000000001 C
   0.1370020000000000    0.9850559999999999    0.3544680000000000 C
   0.8629980000000000    0.2174669999999999    0.8480540000000000 C
   0.6305870000000000    0.9850559999999999    0.8480540000000000 C
   0.3694130000000000    0.0149440000000000    0.1519460000000000 C
