Zn35 Cu17
1.0
   7.6855820000000001    0.0000000000000000    0.0000000000000000
   2.5430890000000002    7.2551500000000004    0.0000000000000000
   0.0163460000000000    0.0089220000000000   12.6236999999999995
Zn Cu
35 17
direct
   0.2159870000000000    0.0001190000000000    0.9994340000000000 Zn
   0.7169469999999999    0.4994269999999999    0.5003630000000000 Zn
   0.4999569999999999    0.2839660000000000    0.5005030000000000 Zn
   0.0025780000000000    0.7824160000000000    0.9975400000000001 Zn
   0.8946439999999999    0.1052840000000000    0.8898390000000000 Zn
   0.3954080000000000    0.6049529999999999    0.3908430000000000 Zn
   0.3948550000000000    0.6052400000000000    0.6098280000000000 Zn
   0.8957839999999999    0.1083780000000000    0.1089140000000000 Zn
   0.3447340000000000    0.2733290000000000    0.9992729999999999 Zn
   0.8446340000000001    0.7736030000000000    0.5003630000000000 Zn
   0.4863410000000001    0.8624059999999999    0.8614990000000000 Zn
   0.9865439999999999    0.3624329999999999    0.3623910000000000 Zn
   0.9865920000000000    0.3621389999999999    0.6380260000000000 Zn
   0.4814359999999999    0.8632210000000000    0.1370610000000000 Zn
   0.2262960000000000    0.1555130000000000    0.5002770000000000 Zn
   0.7254260000000000    0.6540190000000000    0.9976949999999999 Zn
   0.6377079999999999    0.0134930000000000    0.6380579999999999 Zn
   0.1412030000000000    0.5106350000000000    0.1376760000000000 Zn
   0.1381490000000000    0.5129450000000000    0.8612870000000000 Zn
   0.6360910000000000    0.0156690000000000    0.3640670000000000 Zn
   0.9626149999999999    0.0375480000000000    0.6893659999999999 Zn
   0.4624489999999999    0.5379840000000000    0.1896670000000000 Zn
   0.8278730000000000    0.4504080000000000    0.8237230000000000 Zn
   0.3275569999999999    0.9510499999999998    0.3243869999999999 Zn
   0.5487629999999999    0.1724860000000000    0.8236930000000000 Zn
   0.0533640000000000    0.6701920000000001    0.3266560000000000 Zn
   0.4624210000000000    0.5374719999999999    0.8103040000000001 Zn
   0.9641839999999999    0.0396630000000000    0.3119180000000000 Zn
   0.0489790000000000    0.6725070000000000    0.6756980000000000 Zn
   0.5464240000000000    0.1757200000000000    0.1757190000000000 Zn
   0.3276480000000000    0.9513109999999999    0.6757460000000000 Zn
   0.8277819999999999    0.4476110000000000    0.1757850000000000 Zn
   0.8201419999999999    0.8199140000000000    0.1796960000000000 Zn
   0.6403360000000001    0.3593080000000000    0.9997310000000000 Zn
   0.1405189999999999    0.8595020000000001    0.5003350000000000 Zn
   0.6787940000000000    0.6787130000000000    0.6782800000000000 Cu
   0.1789040000000000    0.1783710000000000    0.1784400000000000 Cu
   0.1786460000000000    0.1789000000000000    0.8217460000000000 Cu
   0.6787359999999999    0.6783970000000001    0.3219730000000000 Cu
   0.3568519999999999    0.6433940000000000    0.0001120000000000 Cu
   0.8564449999999999    0.1434270000000000    0.5000190000000000 Cu
   0.8209770000000001    0.8214129999999999    0.8219000000000000 Cu
   0.3211290000000000    0.3212560000000000    0.3217510000000001 Cu
   0.3211789999999999    0.3212430000000000    0.6783640000000000 Cu
   0.6553679999999998    0.0013420000000000    0.0001910000000000 Cu
   0.1556210000000000    0.5011060000000001    0.5004010000000000 Cu
   0.9986290000000001    0.3452590000000000    0.9998729999999999 Cu
   0.4984359999999999    0.8445850000000000    0.4998890000000000 Cu
   0.6722559999999999    0.3277150000000000    0.6720100000000000 Cu
   0.1708300000000000    0.8276699999999999    0.1720990000000000 Cu
   0.1726960000000000    0.8274999999999999    0.8276920000000001 Cu
   0.6721360000000000    0.3278440000000000    0.3278990000000000 Cu
