Fe4 O8
1.0
  -3.0196250000000000    3.0196250000000000    4.0369489999999999
   3.0196250000000000   -3.0196250000000000    4.0369489999999999
   3.0196250000000000    3.0196250000000000   -4.0369489999999999
Fe O
4 8
direct
   0.8750000000000000    0.6250000000000000    0.2500000000000000 Fe
   0.3750000000000001    0.6250000000000000    0.7500000000000000 Fe
   0.3750000000000001    0.1250000000000000    0.7500000000000001 Fe
   0.3750000000000000    0.6250000000000000    0.2500000000000000 Fe
   0.1439529999999999    0.8676340000000000    0.7236810000000000 O
   0.5797280000000000    0.8560470000000000    0.7236809999999999 O
   0.6060470000000000    0.3823660000000000    0.7763189999999999 O
   0.6176340000000000    0.3939529999999999    0.2236810000000000 O
   0.1702720000000000    0.3939529999999999    0.7763189999999999 O
   0.6060470000000000    0.8297280000000000    0.2236810000000000 O
   0.1323660000000001    0.8560470000000000    0.2763190000000000 O
   0.1439530000000000    0.4202719999999999    0.2763189999999999 O
