Ta4 Cr8
1.0
   2.4508589999999999   -4.2450120000000000    0.0000000000000000
   2.4508589999999999    4.2450120000000000    0.0000000000000000
   0.0000000000000000    0.0000000000000000    8.0441059999999993
Ta Cr
4 8
direct
   0.3333330000000000    0.6666669999999999    0.4391270000000000 Ta
   0.6666670000000000    0.3333329999999999    0.9391270000000000 Ta
   0.6666670000000000    0.3333329999999999    0.5608730000000000 Ta
   0.3333330000000000    0.6666669999999999    0.0608730000000000 Ta
   0.1696860000000000    0.3393709999999999    0.7500000000000000 Cr
   0.1696860000000000    0.8303139999999999    0.7500000000000000 Cr
   0.3393710000000000    0.1696859999999999    0.2500000000000000 Cr
   0.8303139999999999    0.6606289999999999    0.2500000000000000 Cr
   0.0000000000000000    0.0000000000000000    0.0000000000000000 Cr
   0.6606290000000000    0.8303139999999998    0.7500000000000000 Cr
   0.8303140000000000    0.1696860000000000    0.2500000000000000 Cr
   0.0000000000000000    0.0000000000000000    0.5000000000000000 Cr
