Zr24 As8
1.0
  11.0580350000000003    0.0000000000000000    0.0000000000000000
   0.0000000000000000   11.0580350000000003    0.0000000000000000
   0.0000000000000000    0.0000000000000000    5.4958890000000000
Zr As
24 8
direct
   0.8945259999999999    0.5827510000000000    0.0356950000000000 Zr
   0.1054740000000000    0.4172490000000000    0.0356950000000000 Zr
   0.9172490000000000    0.3945260000000000    0.5356950000000000 Zr
   0.0827510000000000    0.6054740000000000    0.5356950000000000 Zr
   0.6054740000000000    0.9172490000000000    0.4643050000000000 Zr
   0.3945260000000000    0.0827510000000000    0.4643050000000000 Zr
   0.5827510000000000    0.1054740000000000    0.9643050000000000 Zr
   0.4172490000000000    0.8945259999999999    0.9643050000000000 Zr
   0.8606480000000000    0.0262880000000000    0.7169110000000000 Zr
   0.1393520000000000    0.9737120000000000    0.7169110000000000 Zr
   0.4737120000000001    0.3606480000000000    0.2169110000000000 Zr
   0.5262880000000000    0.6393520000000000    0.2169110000000000 Zr
   0.6393520000000000    0.4737120000000001    0.7830889999999999 Zr
   0.3606480000000000    0.5262880000000000    0.7830889999999999 Zr
   0.0262880000000000    0.1393520000000000    0.2830890000000000 Zr
   0.9737120000000000    0.8606480000000000    0.2830890000000000 Zr
   0.2847650000000000    0.1802200000000000    0.9888420000000000 Zr
   0.7152350000000000    0.8197800000000000    0.9888420000000000 Zr
   0.3197800000000000    0.7847650000000002    0.4888420000000000 Zr
   0.6802200000000000    0.2152350000000000    0.4888420000000000 Zr
   0.2152350000000000    0.3197800000000000    0.5111580000000000 Zr
   0.7847650000000002    0.6802200000000000    0.5111580000000000 Zr
   0.1802200000000000    0.7152350000000000    0.0111580000000000 Zr
   0.8197800000000000    0.2847650000000000    0.0111580000000000 Zr
   0.7937630000000000    0.0407430000000000    0.2120920000000000 As
   0.2062370000000000    0.9592570000000000    0.2120920000000000 As
   0.4592570000000000    0.2937630000000000    0.7120919999999999 As
   0.5407430000000000    0.7062370000000000    0.7120919999999999 As
   0.7062370000000000    0.4592570000000000    0.2879080000000000 As
   0.2937630000000000    0.5407430000000000    0.2879080000000000 As
   0.0407430000000000    0.2062370000000000    0.7879080000000001 As
   0.9592570000000000    0.7937630000000000    0.7879080000000001 As
