B50 N50
1.0
  10.8155326600000006   -0.0332430900000000   -0.6831468500000000
  -0.0337566200000000   10.8296345200000008    0.0973412100000000
  -0.6735570200000000    0.0997005800000000   10.3428132000000002
B N
50 50
direct
   0.6319701400000000    0.8680405500000001    0.5110079000000000 B
   0.9814153600000001    0.5611202600000000    0.9460333300000000 B
   0.3307347100000000    0.6003505200000001    0.6123466199999998 B
   0.3237406700000000    0.4832327400000000    0.1635470300000000 B
   0.7246739699999999    0.7592744700000001    0.4730510600000000 B
   0.5347629800000000    0.3066011700000000    0.5194524300000000 B
   0.8765015899999999    0.1967064800000000    0.4497797399999999 B
   0.6777701200000000    0.3372733200000000    0.6596909100000000 B
   0.9360848799999999    0.3451248000000001    0.4998655999999999 B
   0.8885199099999999    0.9381693000000000    0.7126239400000000 B
   0.3038407800000000    0.2546066500000000    0.8260393200000000 B
   0.4957423700000000    0.9871431800000000    0.5642252499999999 B
   0.9911902800000000    0.7579911400000001    0.5671609600000000 B
   0.3143835000000000    0.2771017600000000    0.0669690600000000 B
   0.3809413500000001    0.2955532400000001    0.3093161200000000 B
   0.0919207200000000    0.5383563600000001    0.6075757300000000 B
   0.1026255400000000    0.3792119899999999    0.5576544700000000 B
   0.2832741600000000    0.8596121300000003    0.8831676299999999 B
   0.3844980700000000    0.6925145100000000    0.2585525299999999 B
   0.2799842000000000    0.4601209300000000    0.9151799799999999 B
   0.2440994300000000    0.6569001700000000    0.7913247100000002 B
   0.9391038600000000    0.9360712900000000   -0.0000813700000000 B
   0.3303267900000000    0.5306696900000001    0.4144025100000000 B
   0.1131004000000000    0.2618027300000000    0.4484263700000000 B
   0.3617673000000000    0.8208841900000001    0.6796368200000000 B
   0.2967929300000000    0.6694036200000001    0.0254316600000000 B
   0.9629645300000000    0.3167122500000000    0.2583828700000000 B
   0.9030188399999999    0.1178463100000000    0.1912361000000000 B
   0.3058526400000000    0.0687240000000000    0.9707228600000000 B
   0.9607555700000000    0.7951372700000001    0.8167589500000000 B
   0.0878320200000000    0.6481624600000001    0.3702970300000000 B
   0.9980581099999999    0.7161082400000001    0.0426032200000000 B
   0.4366495000000001    0.9071233300000001    0.3368271500000000 B
   0.9480711199999999    0.5417305000000000    0.2023046900000000 B
   0.8934073600000001    0.5795107600000001    0.4524886600000000 B
   0.0537294400000000    0.7942428400000000    0.4177639599999999 B
   0.1789303500000000    0.4341181100000000    0.3200630500000000 B
   0.2536935800000000    0.4377016700000001    0.6531261599999999 B
   0.7198556200000000    0.4156865200000001    0.4217240099999999 B
   0.4543943200000000    0.2163333000000000    0.6942513400000000 B
   0.3677304299999999    0.0922053300000000    0.2055316500000000 B
   0.0007933200000000    0.9194449500000000    0.1978635000000000 B
   0.8697613399999999    0.3959947500000000    0.8150540299999999 B
   0.4525186700000001    0.1048862000000000    0.4445640500000000 B
   0.7807421099999999    0.0222210700000000    0.6006787500000000 B
   0.4401225600000000    0.7337206200000002    0.4863888199999999 B
   0.3363044099999999    0.8806562500000000    0.1153334200000000 B
   0.3485071400000000    0.0317802500000000    0.7462566300000000 B
   0.0822801200000000    0.0275871100000000    0.3991135800000000 B
   0.7692404700000001    0.4106239000000000    0.2255736700000000 B
   0.4906266300000000    0.8598791200000000    0.4641968200000000 N
   0.0455503900000000    0.2108661000000000    0.7534925199999999 N
   0.1852500200000000    0.5552394300000001    0.3704010000000000 N
   0.6824867900000000    0.1348398000000000    0.9884468199999998 N
   0.4194029499999999    0.0374144500000000    0.3262002400000000 N
   0.6701736399999999    0.4153799600000000    0.2851970300000000 N
   0.3237901100000000    0.4232500900000001    0.2999837699999999 N
   0.2160624600000000    0.5826627000000001    0.6758582300000000 N
   0.2906239900000000    0.8024276500000000    0.0098906800000000 N
   0.7892583600000000    0.6678352300000001    0.4511873000000000 N
   0.2774205299999999    0.7838101700000000    0.7725709800000000 N
   0.3969457900000000    0.7150739000000000    0.6088699600000000 N
   0.2974501600000000    0.9894130100000003    0.8611175600000001 N
   0.6267454500000001    0.0725416800000000    0.9189985200000000 N
   0.8549644700000000    0.4441584500000000    0.4674787400000000 N
   0.6461026100000000    0.3786674300000000    0.5214194800000002 N
   0.9398524899999998    0.0279657800000000    0.1157247800000000 N
   0.0468419700000000    0.9149588500000002    0.3374079600000000 N
   0.4479622400000000    0.2418012600000000    0.4266433200000000 N
   0.7712953999999999    0.3366137900000000    0.7590006100000000 N
   0.1224736300000000    0.1315755700000000    0.4474033499999999 N
   0.2828532599999999    0.3836409900000001    0.7962539499999999 N
   0.0443638900000000    0.1124074200000000    0.7247095600000000 N
   0.3295318100000000    0.0132959000000000    0.0982603300000000 N
   0.9901978500000000    0.6948264300000000    0.9031268000000000 N
   0.3490407500000000    0.1684118300000000    0.7307021399999999 N
   0.9960788500000001    0.5904288600000002    0.0898063700000000 N
   0.9553875999999999    0.8255728100000002    0.6771918000000000 N
   0.3512652499999999    0.2234025000000000    0.1945157000000000 N
   0.9637453999999998    0.4529315800000000    0.8814090800000000 N
   0.3360265000000000    0.6142649900000000    0.1514161100000000 N
   0.3042199500000000    0.4082414500000001    0.0484381100000000 N
   0.0921640200000000    0.3307617400000000    0.3142797300000000 N
   0.2641622000000000    0.5933252200000001    0.9129203899999999 N
   0.3009283200000000    0.2008717300000000    0.9540291100000000 N
   0.3920190999999999    0.8252806700000000    0.2352230799999999 N
   0.9203992900000000    0.9192787000000000    0.8625769399999997 N
   0.8883441999999999    0.4144115300000000    0.1905622100000000 N
   0.9894241999999999    0.8360191799999999    0.0921085500000000 N
   0.9613841699999999    0.6015890000000002    0.3250629200000000 N
   0.6273374900000001    0.6061328200000000    0.8367203900000000 N
   0.6456600699999999    0.9716599800000001    0.5883847600000000 N
   0.5526521700000000    0.2715174000000001    0.6614537500000000 N
   0.4060925200000000    0.9476975400000001    0.6659497599999999 N
   0.9950377399999998    0.6181550500000002    0.5704870099999999 N
   0.8204085000000000    0.1055616000000000    0.5106212099999999 N
   0.8941887600000000    0.1983460700000000    0.2855767100000000 N
   0.5705079399999999    0.5676538100000000    0.9103557499999999 N
   0.4112506400000000    0.6433181700000000    0.3879764800000000 N
   0.3500868700000000    0.4827794200000001    0.5590661599999999 N
