Ba4 Cu4
1.0
   2.2550900000000000   -3.9059309999999998    0.0000000000000000
   2.2550900000000000    3.9059309999999998    0.0000000000000000
   0.0000000000000000    0.0000000000000000   16.7912190000000017
Ba Cu
4 4
direct
   0.3333330000000002    0.6666669999999999    0.1250920000000000 Ba
   0.6666670000000001    0.3333329999999999    0.8749080000000001 Ba
   0.3333330000000002    0.6666669999999999    0.3749080000000000 Ba
   0.6666670000000001    0.3333329999999999    0.6250920000000000 Ba
   0.0000000000000000    0.0000000000000000    0.2500000000000000 Cu
   0.6666670000000001    0.3333329999999999    0.2500000000000000 Cu
   0.3333330000000002    0.6666669999999999    0.7500000000000001 Cu
   0.0000000000000000    0.0000000000000000    0.7500000000000001 Cu
