Te8 W4
1.0
   1.7785400000000000   -3.0805210000000001    0.0000000000000000
   1.7785400000000000    3.0805210000000001    0.0000000000000000
   0.0000000000000000    0.0000000000000000   40.1391840000000002
Te W
8 4
direct
   0.3333330000000000    0.6666669999999998    0.9513190000000000 Te
   0.3333330000000000    0.6666669999999998    0.3270520000000000 Te
   0.6666670000000000    0.3333329999999998    0.6729480000000000 Te
   0.6666670000000000    0.3333329999999998    0.0486810000000000 Te
   0.6666670000000000    0.3333329999999998    0.7634580000000000 Te
   0.6666670000000000    0.3333329999999998    0.1391960000000000 Te
   0.3333330000000000    0.6666669999999998    0.8608040000000000 Te
   0.3333330000000000    0.6666669999999998    0.2365420000000000 Te
   0.3333330000000000    0.6666669999999998    0.7182060000000000 W
   0.3333330000000000    0.6666669999999998    0.0939110000000000 W
   0.6666670000000000    0.3333329999999998    0.9060890000000000 W
   0.6666670000000000    0.3333329999999998    0.2817940000000000 W
