Tb16 O24
1.0
  -5.3720559999999997    5.3720559999999997    5.3720559999999997
   5.3720559999999997   -5.3720559999999997    5.3720559999999997
   5.3720559999999997    5.3720559999999997   -5.3720559999999997
Tb O
16 24
direct
   0.7822330000000000    0.0322330000000001    0.7499999999999999 Tb
   0.2500000000000000    0.7177670000000000    0.4677670000000000 Tb
   0.4677670000000000    0.2500000000000001    0.7177670000000000 Tb
   0.7499999999999999    0.7822330000000000    0.0322330000000000 Tb
   0.0322330000000000    0.7499999999999999    0.7822330000000000 Tb
   0.7177670000000000    0.4677670000000000    0.2500000000000000 Tb
   0.2822330000000000    0.5322329999999998    0.7499999999999999 Tb
   0.2500000000000001    0.2177670000000000    0.9677670000000000 Tb
   0.9677670000000000    0.2500000000000000    0.2177670000000000 Tb
   0.7499999999999999    0.2822330000000001    0.5322330000000000 Tb
   0.5322330000000000    0.7499999999999999    0.2822330000000000 Tb
   0.2177670000000000    0.9677670000000002    0.2500000000000001 Tb
   0.5000000000000000   -0.0000000000000000   -0.0000000000000000 Tb
   0.0000000000000000    0.0000000000000000    0.5000000000000000 Tb
  -0.0000000000000000    0.5000000000000000    0.0000000000000000 Tb
   0.5000000000000000    0.5000000000000000    0.5000000000000000 Tb
   0.2601130000000000    0.7717450000000000    0.7296610000000000 O
   0.9579150000000000    0.7282550000000001    0.9883680000000000 O
   0.2398869999999999    0.9695480000000000    0.5116320000000000 O
   0.5304520000000000    0.7703390000000000    0.5420850000000000 O
   0.7703390000000000    0.5420850000000000    0.5304520000000000 O
   0.7296610000000000    0.2601130000000000    0.7717450000000000 O
   0.7282550000000000    0.9883680000000000    0.9579150000000000 O
   0.5116320000000000    0.2398869999999999    0.9695480000000000 O
   0.7717449999999999    0.7296609999999999    0.2601130000000000 O
   0.9883680000000000    0.9579150000000000    0.7282550000000000 O
   0.9695480000000000    0.5116320000000000    0.2398869999999999 O
   0.5420849999999999    0.5304520000000000    0.7703390000000000 O
   0.2717450000000000    0.0116320000000000    0.0420850000000000 O
   0.0304519999999999    0.4883680000000000    0.7601130000000000 O
   0.2282550000000000    0.2703390000000000    0.7398870000000000 O
   0.2296610000000000    0.4579150000000000    0.4695480000000000 O
   0.4695480000000000    0.2296610000000000    0.4579150000000000 O
   0.2703390000000000    0.7398870000000000    0.2282550000000000 O
   0.7601130000000000    0.0304520000000000    0.4883680000000000 O
   0.0116320000000000    0.0420850000000000    0.2717450000000000 O
   0.7398870000000000    0.2282550000000000    0.2703390000000000 O
   0.4883680000000000    0.7601130000000000    0.0304520000000000 O
   0.0420850000000000    0.2717450000000000    0.0116320000000000 O
   0.4579150000000000    0.4695480000000000    0.2296610000000000 O
