Hg3 Se3
1.0
   2.2793830000000002   -3.9480070000000000    0.0000000000000000
   2.2793830000000002    3.9480070000000000    0.0000000000000000
   0.0000000000000000    0.0000000000000000    9.9419090000000008
Hg Se
3 3
direct
   0.7264330000000001    0.7264330000000001    0.0000000000000000 Hg
   0.2735670000000000    0.0000000000000000    0.6666670000000000 Hg
   0.0000000000000000    0.2735670000000000    0.3333330000000000 Hg
   0.4852680000000000    0.4852680000000000    0.5000000000000000 Se
   0.5147320000000000   -0.0000000000000000    0.1666670000000000 Se
  -0.0000000000000000    0.5147320000000000    0.8333330000000000 Se
