Nd8 Bi6
1.0
  -4.8478440000000003    4.8478440000000003    4.8478440000000003
   4.8478440000000003   -4.8478440000000003    4.8478440000000003
   4.8478440000000003    4.8478440000000003   -4.8478440000000003
Nd Bi
8 6
direct
   0.1434670000000001    0.5000000000000000    0.0000000000000000 Nd
   0.6434670000000001    0.5000000000000001    0.0000000000000000 Nd
   0.5000000000000001   -0.0000000000000000    0.6434670000000001 Nd
   0.3565330000000000    0.3565330000000000    0.3565330000000000 Nd
   0.5000000000000000   -0.0000000000000000    0.1434670000000000 Nd
   0.0000000000000000    0.6434670000000001    0.5000000000000001 Nd
   0.8565330000000001    0.8565330000000001    0.8565330000000001 Nd
   0.0000000000000000    0.1434670000000000    0.5000000000000000 Nd
   0.3750000000000000    0.6250000000000000    0.7500000000000000 Bi
   0.8749999999999999    0.2499999999999999    0.1250000000000000 Bi
   0.6250000000000000    0.7500000000000000    0.3750000000000000 Bi
   0.1250000000000001    0.8750000000000000    0.2500000000000001 Bi
   0.2500000000000000    0.1249999999999999    0.8750000000000000 Bi
   0.7500000000000000    0.3750000000000001    0.6250000000000000 Bi
