K8 F24
1.0
   7.3712470000000003    0.0000000000000000    0.0000000000000000
   0.0000000000000000    7.5964850000000004    0.0000000000000000
   0.0000000000000000    0.0000000000000000    9.8979490000000006
K F
8 24
direct
   0.4284130000000000    0.7730650000000000    0.6474820000000000 K
   0.9284130000000002    0.7269350000000000    0.3525180000000000 K
   0.5715870000000000    0.2730650000000001    0.8525180000000000 K
   0.0715870000000000    0.2269350000000000    0.1474820000000000 K
   0.4678920000000000    0.8257930000000001    0.1294230000000000 K
   0.9678920000000000    0.6742070000000001    0.8705770000000000 K
   0.5321080000000000    0.3257930000000001    0.3705770000000000 K
   0.0321080000000000    0.1742070000000000    0.6294230000000000 K
   0.7893090000000001    0.6931510000000000    0.6243040000000000 F
   0.2893090000000000    0.8068490000000000    0.3756960000000000 F
   0.2106910000000000    0.1931510000000000    0.8756960000000000 F
   0.7106910000000000    0.3068490000000000    0.1243040000000000 F
   0.0391630000000000    0.7967040000000000    0.6105310000000000 F
   0.5391629999999999    0.7032960000000000    0.3894690000000000 F
   0.9608370000000001    0.2967040000000000    0.8894690000000000 F
   0.4608370000000001    0.2032960000000000    0.1105310000000000 F
   0.2684450000000000    0.9382160000000002    0.8716190000000001 F
   0.7684450000000000    0.5617840000000001    0.1283810000000000 F
   0.7315550000000001    0.4382160000000000    0.6283810000000000 F
   0.2315550000000000    0.0617840000000000    0.3716190000000000 F
   0.7662370000000001    0.9668490000000000    0.0096820000000000 F
   0.2662370000000000    0.5331510000000000    0.9903170000000001 F
   0.2337630000000000    0.4668490000000000    0.4903180000000000 F
   0.7337630000000001    0.0331510000000000    0.5096830000000000 F
   0.2346120000000000    0.4632580000000000    0.6894180000000000 F
   0.7346120000000002    0.0367420000000000    0.3105820000000000 F
   0.7653880000000000    0.9632580000000001    0.8105820000000001 F
   0.2653880000000001    0.5367420000000001    0.1894180000000000 F
   0.4930670000000000    0.6212580000000000    0.9053550000000000 F
   0.9930670000000001    0.8787420000000000    0.0946450000000000 F
   0.5069330000000000    0.1212580000000000    0.5946450000000000 F
   0.0069330000000000    0.3787420000000001    0.4053550000000001 F
