Mg4 Sn2
1.0
   2.6715239999999998   -4.8898770000000003    0.0000000000000000
   2.6715239999999998    4.8898770000000003    0.0000000000000000
   0.0000000000000000    0.0000000000000000    5.5009660000000000
Mg Sn
4 2
direct
   0.0067630000000000    0.3407490000000000    0.7500000000000000 Mg
   0.3407490000000000    0.0067630000000000    0.7500000000000000 Mg
   0.6592510000000001    0.9932370000000003    0.2500000000000000 Mg
   0.9932370000000003    0.6592510000000001    0.2500000000000000 Mg
   0.6739830000000000    0.6739830000000000    0.7500000000000000 Sn
   0.3260170000000000    0.3260170000000000    0.2500000000000000 Sn
