V30 O75
1.0
  12.5198397799999999   -0.8283293800000000    0.4175172000000000
  -0.7941558700000000   11.9576413800000001   -0.0889220800000000
   0.3942469600000000   -0.1036559600000000   12.6862227900000004
V O
30 75
direct
   0.8016869800000002    0.1159968100000000    0.6144588000000001 V
   0.9564162899999999    0.7957216400000000    0.8919100700000001 V
   0.5885855500000000    0.4918719600000000    0.8214531800000001 V
   0.9688451100000001    0.0342364600000000    0.4249684600000000 V
   0.5917656000000002    0.1125311100000000    0.1155431700000000 V
   0.2963651300000000    0.6578938900000001    0.4383567300000001 V
   0.6676716000000001    0.7073054900000001    0.3609516000000000 V
   0.5213295900000001    0.0725375300000000    0.5602167100000001 V
   0.8339185000000001    0.3741314100000000    0.4985787200000000 V
   0.2795992900000001    0.5838540500000001    0.1810465700000000 V
   0.3764904900000001    0.2266271900000000    0.4487387800000001 V
   0.0418683900000000    0.6594101500000000    0.1138443000000000 V
   0.9559939600000003    0.0634282200000000    0.9955082500000001 V
   0.3335438500000000    0.0866876500000000    0.7114467900000002 V
   0.1475151000000000    0.1028638900000000    0.5430825600000001 V
   0.3062903800000000    0.8019054000000001    0.0533128100000000 V
   0.8717006500000001    0.7848119199999999    0.2934082100000001 V
   0.3676398300000000    0.2914329800000000    0.8856026100000000 V
   0.6782256200000000    0.7093000400000000    0.9058315400000001 V
   0.7029656900000001    0.3272169100000001    0.9554711800000002 V
   0.0761066100000000    0.1793142400000000    0.1925405000000000 V
   0.0221495700000000    0.6012415400000001    0.5074588000000000 V
   0.0095786300000000    0.6972518100000001    0.7048160300000000 V
   0.6364165400000001    0.2803155100000000    0.3476404600000000 V
   0.3846548100000001    0.0384178400000000    0.9585645000000002 V
   0.3113477500000000    0.3320534200000000    0.2162956900000000 V
   0.9891258100000002    0.3581074800000000    0.0037177100000000 V
   0.5706140300000000    0.8259221200000000    0.1441466800000000 V
   0.4158376400000001    0.4901091200000001    0.6079572700000001 V
   0.5098615000000000    0.4960322300000001    0.0627590700000000 V
   0.4166723200000001    0.3619746700000001    0.1259007900000000 O
   0.9882097900000003    0.9410612200000001    0.9096503100000001 O
   0.6596855300000001    0.3678680499999999    0.8293337300000001 O
   0.4309782600000000    0.8032497600000000    0.1184449700000000 O
   0.7073899299999999    0.5950468300000000    0.8106353100000000 O
   0.2573999500000001    0.2943223400000001    0.9599595600000002 O
   0.8488989800000001    0.9566919100000000    0.6201941600000000 O
   0.0027048800000000    0.5229076600000001    0.0854273000000000 O
   0.4542561700000000    0.0179563600000000    0.6866479200000000 O
   0.3037675200000001    0.0270829500000000    0.8502993800000002 O
   0.6194008800000000    0.9714396800000001    0.1392213000000000 O
   0.8446529000000003    0.0700950700000000    0.4511868200000000 O
   0.2215044900000000    0.2064400000000000    0.1960072800000000 O
   0.4255135700000001    0.3768844700000001    0.5274602200000001 O
   0.1301452600000000    0.0061248000000000    0.4450460900000001 O
   0.3109956100000000    0.4624205000000000    0.6889328800000001 O
   0.1981786900000000    0.0515516500000000    0.6584466600000002 O
   0.5470010000000000    0.2117200300000000    0.4478337200000001 O
   0.8382010100000000    0.3610527500000000    0.9686251500000002 O
   0.8113279300000001    0.1159948600000000    0.7412991600000001 O
   0.9615480400000002    0.4606612800000001    0.4703140600000000 O
   0.7477046300000001    0.4460907800000000    0.5577132299999999 O
   0.1975665000000000    0.6889388900000001    0.1284158000000000 O
   0.2243010600000000    0.4447951800000000    0.2099711400000000 O
   0.4627925100000000    0.4198077100000000    0.9006516300000000 O
   0.4386046100000001    0.1874576900000000    0.9344163800000002 O
   0.6428058000000001    0.8029426000000000    0.8321625200000000 O
   0.8399192900000000    0.8390350599999999    0.1865285900000000 O
   0.0186482900000000    0.1454384400000000    0.3173898600000001 O
   0.0294020500000000    0.2929621400000000    0.1413214500000000 O
   0.3932863700000001    0.1424977900000000    0.5671844400000001 O
   0.0155014400000000    0.1321285000000000    0.5520459400000001 O
   0.6059397300000000    0.6370598000000001    0.4605618300000001 O
   0.9445747900000002    0.5781114700000000    0.6445735800000001 O
   0.9838906700000001    0.6987577800000001    0.2317065900000000 O
   0.9604001600000002    0.6839878600000000    0.4403911600000001 O
   0.3394071700000000    0.6361882300000001    0.2936969400000001 O
   0.7738396000000001    0.3097353600000001    0.3825182400000001 O
   0.3594961600000001    0.3418736000000000    0.3373159100000000 O
   0.8336176100000000    0.0426573100000000    0.0464864200000000 O
   0.4592856500000000    0.0990227100000000    0.1089921300000000 O
   0.0452114800000000    0.0650833800000000    0.1073815100000000 O
   0.6297221600000001    0.1932813000000000    0.2256983300000001 O
   0.0762060300000000    0.4120436300000000    0.9141763400000001 O
   0.6446842400000001    0.7649982000000002    0.0481848800000000 O
   0.3802563400000000    0.6055546800000001    0.5271925700000001 O
   0.3171271200000000    0.7573424500000000    0.9336814000000000 O
   0.7733752600000000    0.6459413500000000    0.2946582400000001 O
   0.8261653100000002    0.7473176500000002    0.9342341300000001 O
   0.9807473399999999    0.1980503000000000    0.9500041500000002 O
   0.1604935100000000    0.5914446000000000    0.4503772600000000 O
   0.6574849800000000    0.1848907600000000    0.0006821800000000 O
   0.9581723200000001    0.9105955600000001    0.3473828700000001 O
   0.3710093700000001    0.5710131300000000    0.0821706900000000 O
   0.5603969000000000    0.5673699700000000    0.1615674200000000 O
   0.3431920400000000    0.2348930500000000    0.7569645200000003 O
   0.6376127600000001    0.4116335300000001    0.0368883000000000 O
   0.9200737700000002    0.9227546499999999    0.5517376600000000 O
   0.0162770900000000    0.7534134200000000    0.0206888100000000 O
   0.5107501800000001    0.9673776300000002    0.4798176000000001 O
   0.1014323600000000    0.7270298500000001    0.6017030799999999 O
   0.8496675400000000    0.2611564900000000    0.5827183600000001 O
   0.5945283900000000    0.3970525100000000    0.3205537500000001 O
   0.2856608600000000    0.9418096700000002    0.0525091900000000 O
   0.5319140999999999    0.5033331200000000    0.7028970000000000 O
   0.2342847200000000    0.2238563300000000    0.4957798200000000 O
   0.0508385000000000    0.6918132600000000    0.8346888200000001 O
   0.3702924300000001    0.1308869300000000    0.3562682000000000 O
   0.7616708400000001    0.8207519400000000    0.3975051600000001 O
   0.5592621200000001    0.5972014600000000    0.9358998700000002 O
   0.6612766500000001    0.0997676000000000    0.5960022000000001 O
   0.4838970100000000    0.9684315500000003    0.9265724100000002 O
   0.9286642800000001    0.8016251599999999    0.7495284600000001 O
   0.5813591700000001    0.7762998400000000    0.2686462100000001 O
   0.2997065500000000    0.7912483500000000    0.4559213100000001 O
