H11 O8
1.0
   4.3872099999999996    0.0000000000000000    0.0000000000000000
   1.7649800000000000    4.1273070000000001    0.0000000000000000
   0.7003850000000000    0.6030980000000000   11.3734940000000009
H O
11 8
direct
   0.4790509999999999    0.4841250000000000    0.2938270000000000 H
   0.5766880000000000    0.5307970000000000    0.4876020000000000 H
   0.5688370000000001    0.5541840000000000    0.0036670000000000 H
   0.9105960000000001    0.5800120000000001    0.8184730000000000 H
   0.1633610000000000    0.4302860000000000    0.4984030000000000 H
   0.1302270000000000    0.4473210000000000    0.0139070000000000 H
   0.3251710000000000    0.3461300000000000    0.6985560000000001 H
   0.3342380000000000    0.3314980000000000    0.2041720000000000 H
   0.4857930000000000    0.1101090000000000    0.5018089999999999 H
   0.4594350000000001    0.1203490000000000    0.0118250000000000 H
   0.4235230000000000    0.5084520000000000    0.8027850000000001 H
   0.7203759999999999    0.7077500000000000    0.3434920000000000 O
   0.6655760000000001    0.6966449999999998    0.8462970000000000 O
   0.7090010000000000    0.6758090000000000    0.4639670000000001 O
   0.6964310000000001    0.6938269999999999    0.9743330000000000 O
   0.2686730000000001    0.4107509999999999    0.7799240000000000 O
   0.3458419999999999    0.3519690000000000    0.2891970000000000 O
   0.3565210000000000    0.3382459999999999    0.0448870000000000 O
   0.3796610000000000    0.3247409999999999    0.5359790000000000 O
