Cs12 K14
1.0
   4.5749480000000000   -7.9240420000000000    0.0000000000000000
   4.5749480000000000    7.9240420000000000    0.0000000000000000
   0.0000000000000000    0.0000000000000000   33.2381290000000007
Cs K
12 14
direct
   0.3333330000000002    0.6666669999999999    0.9769839999999999 Cs
   0.6666670000000001    0.3333329999999999    0.1784660000000000 Cs
   0.3333330000000002    0.6666669999999999    0.6784659999999999 Cs
   0.3333330000000002    0.6666669999999999    0.8215340000000000 Cs
   0.6666670000000001    0.3333329999999999    0.0230160000000000 Cs
   0.6666670000000001    0.3333329999999999    0.3215340000000000 Cs
   0.3333330000000002    0.6666669999999999    0.5230160000000000 Cs
   0.6666670000000001    0.3333329999999999    0.4769840000000000 Cs
   0.0000000000000000    0.0000000000000000    0.2500000000000000 Cs
   0.6666670000000001    0.3333329999999999    0.7500000000000000 Cs
   0.0000000000000000    0.0000000000000000    0.7500000000000000 Cs
   0.3333330000000002    0.6666669999999999    0.2500000000000000 Cs
   0.1671570000000001    0.3343149999999999    0.3854279999999999 K
   0.1671570000000002    0.8328429999999999    0.3854279999999999 K
   0.6656850000000001    0.8328429999999998    0.1145720000000000 K
   0.1671570000000002    0.8328429999999999    0.1145720000000000 K
   0.6656850000000001    0.8328429999999998    0.3854279999999999 K
   0.8328430000000000    0.1671570000000000    0.6145719999999999 K
   0.3343150000000000    0.1671570000000000    0.8854280000000000 K
   0.3343150000000000    0.1671570000000000    0.6145719999999999 K
   0.1671570000000001    0.3343149999999999    0.1145720000000000 K
   0.8328430000000000    0.1671570000000000    0.8854280000000000 K
   0.8328430000000000    0.6656849999999999    0.6145719999999999 K
   0.0000000000000000    0.0000000000000000    0.5000000000000000 K
   0.8328430000000000    0.6656849999999999    0.8854280000000000 K
   0.0000000000000000    0.0000000000000000    0.0000000000000000 K
