S6 N4
1.0
   4.2976340000000004    0.0000000000000000    0.0000000000000000
   0.0000000000000000    8.7363029999999995    0.0000000000000000
   0.0000000000000000    0.0000000000000000   24.4198039999999992
S N
6 4
direct
   0.0610420000000000    0.2726970000000000    0.4579660000000000 S
   0.5610420000000002    0.2273030000000000    0.5420340000000000 S
   0.5610420000000002    0.7726970000000000    0.5420340000000000 S
   0.0610420000000000    0.7273030000000000    0.4579660000000000 S
   0.1333720000000000    0.5000000000000000    0.5443760000000000 S
   0.6333720000000000    0.0000000000000000    0.4556240000000000 S
   0.2673770000000000    0.3427080000000001    0.5096940000000000 N
   0.7673770000000000    0.1572920000000000    0.4903060000000000 N
   0.7673770000000000    0.8427080000000000    0.4903060000000000 N
   0.2673770000000000    0.6572920000000001    0.5096940000000000 N
