Sm3 Zr1
1.0
  -2.4844759999999999    2.4844759999999999    4.9337869999999997
   2.4844759999999999   -2.4844759999999999    4.9337869999999997
   2.4844759999999999    2.4844759999999999   -4.9337869999999997
Sm Zr
3 1
direct
   0.7500000000000000    0.2500000000000001    0.4999999999999999 Sm
   0.2500000000000001    0.7500000000000001    0.4999999999999999 Sm
   0.5000000000000001    0.5000000000000001    0.0000000000000000 Sm
   0.0000000000000000    0.0000000000000000    0.0000000000000000 Zr
