Yb2 Gd6
1.0
   3.4349240000000001   -5.9494639999999999    0.0000000000000000
   3.4349240000000001    5.9494639999999999    0.0000000000000000
   0.0000000000000000    0.0000000000000000    5.3621299999999996
Yb Gd
2 6
direct
   0.3333330000000000    0.6666670000000000    0.7499999999999999 Yb
   0.6666670000000000    0.3333330000000000    0.2500000000000000 Yb
   0.1639120000000000    0.3278240000000000    0.2500000000000000 Gd
   0.6721760000000000    0.8360880000000001    0.2500000000000000 Gd
   0.1639120000000000    0.8360880000000001    0.2500000000000000 Gd
   0.8360880000000001    0.6721760000000000    0.7499999999999999 Gd
   0.3278240000000000    0.1639120000000000    0.7499999999999999 Gd
   0.8360880000000001    0.1639120000000000    0.7499999999999999 Gd
