Si4 O8
1.0
  -2.8378980000000000    2.8378980000000000    5.6602100000000002
   2.8378980000000000   -2.8378980000000000    5.6602100000000002
   2.8378980000000000    2.8378980000000000   -5.6602100000000002
Si O
4 8
direct
   0.3750000000000001    0.9863820000000001    0.1113820000000000 Si
   0.7363820000000000    0.1250000000000000    0.1113820000000000 Si
   0.0136179999999999    0.6249999999999999    0.8886180000000000 Si
   0.8750000000000000    0.2636180000000000    0.8886180000000000 Si
   0.7178770000000000    0.2821230000000000    0.0000000000000000 O
   0.2821230000000000    0.7178770000000000   -0.0000000000000000 O
   0.8662730000000000    0.3662730000000001    0.5000000000000000 O
   0.8837270000000002    0.8837270000000002    0.0000000000000000 O
   0.1162730000000000    0.1162730000000000    0.0000000000000000 O
   0.0321230000000000    0.5321230000000000    0.0642470000000000 O
   0.4678770000000000    0.9678769999999999    0.9357529999999999 O
   0.6337270000000000    0.1337270000000000    0.5000000000000000 O
