Tb4 Fe34
1.0
   0.0000000000000000    0.0000000000000000   -8.2496639999999992
  -4.2414569999999996   -7.3421130000000003    0.0000000000000000
  -4.2414569999999996    7.3421130000000003    0.0000000000000000
Tb Fe
4 34
direct
   0.7500000000000000    0.0000230000000000    0.9999770000000000 Tb
   0.2500000000000000    0.9999770000000000    0.0000230000000000 Tb
   0.2500000000000000    0.6665970000000000    0.3334030000000001 Tb
   0.7500000000000000    0.3334030000000001    0.6665970000000000 Tb
   0.6067680000000000    0.6666620000000000    0.3333380000000000 Fe
   0.3932320000000000    0.3333380000000000    0.6666620000000000 Fe
   0.1067680000000000    0.3333380000000000    0.6666620000000000 Fe
   0.8932320000000000    0.6666620000000000    0.3333380000000000 Fe
   0.5000000000000000    0.5000000000000000    0.0000000000000000 Fe
   0.5000000000000000    0.5000000000000000    0.5000000000000000 Fe
   0.5000000000000000    0.0000000000000000    0.5000000000000000 Fe
   0.0000000000000000    0.5000000000000000    0.0000000000000000 Fe
   0.0000000000000000    0.5000000000000000    0.5000000000000000 Fe
   0.0000000000000000    0.0000000000000000    0.5000000000000000 Fe
   0.7500000000000000    0.6701120000000000    0.0385770000000000 Fe
   0.7500000000000000    0.3685020000000000    0.3299930000000000 Fe
   0.7500000000000000    0.9614200000000001    0.6315140000000000 Fe
   0.7500000000000000    0.3684860000000000    0.0385800000000000 Fe
   0.7500000000000000    0.9614229999999999    0.3298880000000000 Fe
   0.7500000000000000    0.6700060000000000    0.6314980000000000 Fe
   0.2500000000000000    0.3298880000000000    0.9614229999999999 Fe
   0.2500000000000000    0.6314980000000000    0.6700060000000000 Fe
   0.2500000000000000    0.0385800000000000    0.3684860000000000 Fe
   0.2500000000000000    0.6315140000000000    0.9614200000000001 Fe
   0.2500000000000000    0.0385770000000000    0.6701120000000000 Fe
   0.2500000000000000    0.3299930000000000    0.3685020000000000 Fe
   0.4854439999999999    0.8337889999999999    0.6677610000000000 Fe
   0.4853910000000000    0.8338800000000000    0.1661200000000000 Fe
   0.4854439999999999    0.3322390000000000    0.1662110000000000 Fe
   0.5145560000000001    0.1662110000000000    0.3322390000000000 Fe
   0.5146090000000000    0.1661200000000000    0.8338800000000000 Fe
   0.5145560000000001    0.6677610000000000    0.8337889999999999 Fe
   0.9854440000000000    0.1662110000000000    0.3322390000000000 Fe
   0.9853910000000001    0.1661200000000000    0.8338800000000000 Fe
   0.9854440000000000    0.6677610000000000    0.8337889999999999 Fe
   0.0145560000000000    0.8337889999999999    0.6677610000000000 Fe
   0.0146090000000000    0.8338800000000000    0.1661200000000000 Fe
   0.0145560000000000    0.3322390000000000    0.1662110000000000 Fe
