Li1 Dy3
1.0
   4.8799299999999999    0.0000000000000000    0.0000000000000000
   0.0000000000000000    4.8799299999999999    0.0000000000000000
   0.0000000000000000    0.0000000000000000    4.8799299999999999
Li Dy
1 3
direct
   0.0000000000000000    0.0000000000000000    0.0000000000000000 Li
   0.0000000000000000    0.4999999999999999    0.4999999999999999 Dy
   0.4999999999999999    0.0000000000000000    0.4999999999999999 Dy
   0.4999999999999999    0.4999999999999999    0.0000000000000000 Dy
