Tb42 Rh28
1.0
  -5.6472140000000000    5.6472140000000000   12.6936250000000008
   5.6472140000000000   -5.6472140000000000   12.6936250000000008
   5.6472140000000000    5.6472140000000000  -12.6936250000000008
Tb Rh
42 28
direct
   0.6325600000000000    0.5043210000000000    0.2795250000000000 Tb
   0.2247950000000000    0.3530350000000000    0.7204750000000001 Tb
   0.1325600000000000    0.8530350000000001    0.1282390000000000 Tb
   0.7247950000000001    0.0043209999999999    0.8717610000000000 Tb
   0.3530350000000000    0.6325600000000000    0.1282390000000000 Tb
   0.5043210000000000    0.2247950000000000    0.8717610000000000 Tb
   0.0043210000000000    0.1325600000000000    0.2795250000000000 Tb
   0.8530350000000001    0.7247950000000001    0.7204750000000001 Tb
   0.3674400000000000    0.4956790000000000    0.7204750000000001 Tb
   0.7752050000000001    0.6469650000000002    0.2795250000000000 Tb
   0.8674400000000001    0.1469650000000000    0.8717610000000000 Tb
   0.2752050000000000    0.9956790000000001    0.1282390000000000 Tb
   0.6469650000000000    0.3674399999999999    0.8717610000000000 Tb
   0.4956790000000000    0.7752050000000000    0.1282390000000000 Tb
   0.9956790000000000    0.8674400000000001    0.7204750000000001 Tb
   0.1469650000000000    0.2752050000000000    0.2795250000000000 Tb
   0.3868490000000000    0.5165740000000000    0.2897290000000000 Tb
   0.2268450000000000    0.0971200000000000    0.7102710000000000 Tb
   0.8868490000000000    0.5971209999999999    0.8702750000000000 Tb
   0.7268450000000000    0.0165740000000000    0.1297250000000000 Tb
   0.0971200000000000    0.3868490000000000    0.8702750000000000 Tb
   0.5165740000000000    0.2268450000000000    0.1297250000000000 Tb
   0.0165739999999999    0.8868490000000001    0.2897290000000001 Tb
   0.5971210000000001    0.7268450000000000    0.7102710000000000 Tb
   0.6131510000000001    0.4834260000000000    0.7102710000000000 Tb
   0.7731550000000000    0.9028800000000000    0.2897290000000000 Tb
   0.1131510000000000    0.4028800000000000    0.1297250000000000 Tb
   0.2731549999999999    0.9834260000000000    0.8702749999999999 Tb
   0.9028800000000000    0.6131510000000000    0.1297250000000000 Tb
   0.4834260000000000    0.7731550000000000    0.8702750000000000 Tb
   0.9834260000000000    0.1131510000000000    0.7102710000000000 Tb
   0.4028790000000001    0.2731550000000000    0.2897290000000000 Tb
   0.8511080000000000    0.3511080000000000    0.2022150000000000 Tb
   0.1488920000000001    0.6488920000000000    0.7977850000000000 Tb
   0.3511080000000000    0.1488920000000000    0.5000000000000000 Tb
   0.6488920000000001    0.8511080000000001    0.5000000000000000 Tb
   0.3872820000000001    0.8872820000000000    0.5000000000000000 Tb
   0.8872820000000000    0.3872820000000001    0.5000000000000000 Tb
   0.6127180000000000    0.1127180000000000    0.5000000000000000 Tb
   0.1127180000000000    0.6127180000000000    0.5000000000000000 Tb
   0.2500000000000000    0.7500000000000000    0.4999999999999999 Tb
   0.7500000000000000    0.2500000000000000    0.5000000000000000 Tb
   0.7151240000000000    0.2151240000000000    0.1423310000000000 Rh
   0.0727919999999999    0.5727920000000000    0.8576690000000000 Rh
   0.2151240000000000    0.0727920000000000    0.5000000000000000 Rh
   0.5727920000000000    0.7151240000000000    0.5000000000000000 Rh
   0.2848760000000000    0.7848760000000000    0.8576690000000000 Rh
   0.9272080000000001    0.4272080000000000    0.1423310000000000 Rh
   0.7848760000000000    0.9272080000000000    0.5000000000000000 Rh
   0.4272080000000000    0.2848760000000000    0.5000000000000000 Rh
   0.4649610000000000    0.9649610000000000    0.8063620000000000 Rh
   0.1585990000000001    0.6585990000000000    0.1936380000000001 Rh
   0.9649610000000000    0.1585990000000000    0.5000000000000000 Rh
   0.6585990000000000    0.4649610000000000    0.5000000000000000 Rh
   0.5350390000000002    0.0350390000000001    0.1936380000000000 Rh
   0.8414010000000000    0.3414009999999999    0.8063620000000000 Rh
   0.0350389999999999    0.8414010000000000    0.5000000000000000 Rh
   0.3414010000000001    0.5350390000000002    0.5000000000000001 Rh
   0.5980160000000001    0.0980160000000000    0.6960320000000000 Rh
   0.4019840000000000    0.9019839999999999    0.3039680000000000 Rh
   0.0980160000000000    0.4019840000000000    0.5000000000000000 Rh
   0.9019840000000001    0.5980160000000001    0.5000000000000000 Rh
   0.3678420000000001    0.3678420000000001    0.0000000000000000 Rh
   0.8678420000000001    0.8678420000000001    0.0000000000000000 Rh
   0.6321580000000000    0.6321580000000000    0.0000000000000000 Rh
   0.1321580000000000    0.1321580000000000    0.0000000000000000 Rh
   0.5000000000000000    0.5000000000000000    0.0000000000000000 Rh
   0.0000000000000000    0.0000000000000000    0.0000000000000000 Rh
   0.2500000000000000    0.2500000000000000    0.0000000000000000 Rh
   0.7500000000000001    0.7500000000000001    0.0000000000000000 Rh
