Y24 Sb8
1.0
  12.4649249999999991    0.0000000000000000    0.0000000000000000
   0.0000000000000000   12.4649249999999991    0.0000000000000000
   0.0000000000000000    0.0000000000000000    6.2081080000000002
Y Sb
24 8
direct
   0.4162810000000000    0.8906180000000000    0.0344540000000000 Y
   0.5837190000000000    0.1093820000000000    0.0344540000000000 Y
   0.6093819999999999    0.9162810000000000    0.5344540000000000 Y
   0.3906180000000000    0.0837190000000000    0.5344540000000000 Y
   0.0837190000000000    0.6093819999999999    0.4655460000000000 Y
   0.9162810000000000    0.3906180000000000    0.4655460000000000 Y
   0.8906180000000000    0.5837190000000000    0.9655459999999999 Y
   0.1093820000000000    0.4162810000000000    0.9655459999999999 Y
   0.1754020000000000    0.7151109999999999    0.9845129999999999 Y
   0.8245979999999999    0.2848890000000000    0.9845129999999999 Y
   0.7848889999999998    0.6754019999999998    0.4845130000000000 Y
   0.2151110000000000    0.3245980000000000    0.4845130000000000 Y
   0.3245980000000000    0.7848889999999998    0.5154870000000000 Y
   0.6754019999999998    0.2151110000000000    0.5154870000000000 Y
   0.7151109999999999    0.8245979999999999    0.0154870000000000 Y
   0.2848890000000000    0.1754020000000000    0.0154870000000000 Y
   0.1428350000000000    0.9692820000000000    0.2839260000000000 Y
   0.8571649999999998    0.0307180000000000    0.2839260000000000 Y
   0.5307180000000000    0.6428350000000000    0.7839260000000000 Y
   0.4692819999999999    0.3571650000000000    0.7839260000000000 Y
   0.3571650000000000    0.5307180000000000    0.2160740000000000 Y
   0.6428350000000000    0.4692819999999999    0.2160740000000000 Y
   0.9692820000000000    0.8571649999999998    0.7160740000000000 Y
   0.0307180000000000    0.1428350000000000    0.7160740000000000 Y
   0.5423440000000000    0.7011500000000001    0.2896600000000000 Sb
   0.4576560000000000    0.2988500000000000    0.2896600000000000 Sb
   0.7988499999999999    0.0423440000000000    0.7896599999999999 Sb
   0.2011500000000000    0.9576560000000000    0.7896599999999999 Sb
   0.9576560000000000    0.7988499999999999    0.2103400000000000 Sb
   0.0423440000000000    0.2011500000000000    0.2103400000000000 Sb
   0.7011500000000001    0.4576560000000000    0.7103400000000000 Sb
   0.2988500000000000    0.5423440000000000    0.7103400000000000 Sb
