Hf5 Re24
1.0
  -4.8923530000000000    4.8923530000000000    4.8923530000000000
   4.8923530000000000   -4.8923530000000000    4.8923530000000000
   4.8923530000000000    4.8923530000000000   -4.8923530000000000
Hf Re
5 24
direct
   0.0000000000000000    0.0000000000000000    0.0000000000000000 Hf
   0.6295110000000000   -0.0000000000000000   -0.0000000000000000 Hf
  -0.0000000000000000    0.6295110000000000    0.0000000000000000 Hf
   0.0000000000000000    0.0000000000000000    0.6295110000000000 Hf
   0.3704890000000000    0.3704890000000000    0.3704890000000000 Hf
   0.3954870000000000    0.6773370000000000   -0.0000000000000000 Re
   0.7181510000000000    0.3226630000000000    0.3226630000000000 Re
   0.3954870000000000   -0.0000000000000000    0.6773370000000000 Re
   0.6773370000000000    0.3954870000000000    0.0000000000000000 Re
   0.0000000000000000    0.3954870000000000    0.6773370000000000 Re
   0.3226630000000000    0.7181510000000000    0.3226630000000000 Re
   0.3226630000000000    0.3226630000000000    0.7181510000000000 Re
   0.0000000000000000    0.6773370000000000    0.3954870000000000 Re
   0.6773370000000000    0.0000000000000000    0.3954870000000000 Re
   0.6045130000000000    0.6045130000000000    0.2818490000000000 Re
   0.2818490000000000    0.6045130000000000    0.6045130000000000 Re
   0.6045130000000000    0.2818490000000000    0.6045130000000000 Re
   0.3758700000000000    0.1940030000000000   -0.0000000000000000 Re
   0.1818670000000000    0.8059970000000000    0.8059970000000000 Re
   0.3758700000000000   -0.0000000000000000    0.1940030000000000 Re
   0.1940030000000000    0.3758700000000000    0.0000000000000000 Re
  -0.0000000000000000    0.3758700000000000    0.1940030000000000 Re
   0.8059970000000000    0.1818670000000000    0.8059970000000000 Re
   0.8059970000000000    0.8059970000000000    0.1818670000000000 Re
   0.0000000000000000    0.1940030000000000    0.3758700000000000 Re
   0.1940030000000000    0.0000000000000000    0.3758700000000000 Re
   0.6241300000000000    0.6241300000000000    0.8181330000000000 Re
   0.8181330000000000    0.6241300000000000    0.6241300000000000 Re
   0.6241300000000000    0.8181330000000000    0.6241300000000000 Re
