Yb2 Pm6
1.0
   3.7002649999999999   -6.4090470000000002    0.0000000000000000
   3.7002649999999999    6.4090470000000002    0.0000000000000000
   0.0000000000000000    0.0000000000000000    5.9418040000000003
Yb Pm
2 6
direct
   0.3333329999999999    0.6666670000000000    0.7499999999999999 Yb
   0.6666669999999999    0.3333330000000000    0.2500000000000000 Yb
   0.1645129999999999    0.3290270000000000    0.2500000000000000 Pm
   0.6709729999999998    0.8354870000000001    0.2500000000000000 Pm
   0.1645129999999999    0.8354870000000000    0.2500000000000000 Pm
   0.8354869999999999    0.6709730000000000    0.7499999999999999 Pm
   0.3290270000000000    0.1645130000000000    0.7499999999999999 Pm
   0.8354869999999999    0.1645130000000000    0.7499999999999999 Pm
