Rh8 O12
1.0
   2.7837170000000002    0.0000000000000000    0.0000000000000000
   0.0000000000000000    8.3340990000000001    0.0000000000000000
   0.0000000000000000    0.0000000000000000   10.1141930000000002
Rh O
8 12
direct
   0.2500000000000000    0.0129540000000000    0.3732980000000000 Rh
   0.2500000000000000    0.4870460000000000    0.8732980000000001 Rh
   0.7500000000000001    0.9870460000000001    0.6267020000000000 Rh
   0.7500000000000001    0.5129540000000000    0.1267020000000000 Rh
   0.2500000000000000    0.3330920000000000    0.5098819999999999 Rh
   0.2500000000000000    0.1669080000000000    0.0098820000000000 Rh
   0.7500000000000001    0.6669079999999999    0.4901180000000000 Rh
   0.7500000000000001    0.8330920000000001    0.9901180000000002 Rh
   0.2500000000000000    0.3457160000000000    0.1420830000000000 O
   0.2500000000000000    0.1542840000000000    0.6420830000000001 O
   0.7500000000000001    0.6542840000000000    0.8579170000000000 O
   0.7500000000000001    0.8457160000000000    0.3579170000000000 O
   0.2500000000000000    0.7939150000000000    0.6128220000000000 O
   0.2500000000000000    0.7060850000000000    0.1128220000000000 O
   0.7500000000000001    0.2060850000000000    0.3871780000000000 O
   0.7500000000000001    0.2939150000000000    0.8871780000000001 O
   0.2500000000000000    0.9617400000000000    0.8942970000000001 O
   0.2500000000000000    0.5382600000000000    0.3942970000000000 O
   0.7500000000000001    0.0382600000000000    0.1057030000000000 O
   0.7500000000000001    0.4617400000000000    0.6057030000000000 O
