Bi12 O18
1.0
  -5.4167909999999999    5.4167909999999999    5.4167909999999999
   5.4167909999999999   -5.4167909999999999    5.4167909999999999
   5.4167909999999999    5.4167909999999999   -5.4167909999999999
Bi O
12 18
direct
   0.0851389999999999    0.4922490000000000    0.2818390000000000 Bi
   0.5928900000000000    0.7895899999999999    0.5077509999999998 Bi
   0.1966999999999999    0.4071100000000000    0.9148610000000000 Bi
   0.8033000000000000    0.7181610000000000    0.2104100000000000 Bi
   0.4922489999999999    0.2818390000000000    0.0851390000000000 Bi
   0.9148610000000000    0.1967000000000000    0.4071100000000001 Bi
   0.4071100000000000    0.9148610000000000    0.1967000000000001 Bi
   0.5077510000000000    0.5928900000000001    0.7895899999999999 Bi
   0.2104100000000000    0.8033000000000000    0.7181610000000000 Bi
   0.2818390000000000    0.0851390000000000    0.4922490000000000 Bi
   0.7895899999999999    0.5077510000000000    0.5928900000000000 Bi
   0.7181609999999999    0.2104100000000000    0.8032999999999999 Bi
   0.2310660000000000    0.0000000000000000    0.2310660000000000 O
   0.4016309999999999    0.0716480000000001    0.8314240000000001 O
   0.0716480000000000    0.8314240000000001    0.4016310000000000 O
   0.7689339999999999    0.7689339999999999    0.0000000000000001 O
   0.7689339999999999    0.0000000000000001    0.7689339999999999 O
   0.9283519999999998    0.3299830000000000    0.7597769999999999 O
  -0.0000000000000001    0.7689339999999999    0.7689339999999999 O
   0.6700159999999998    0.5983690000000000    0.4297930000000000 O
   0.5702070000000000    0.1685760000000001    0.2402230000000000 O
   0.4297929999999999    0.6700159999999998    0.5983689999999999 O
   0.5983689999999999    0.4297930000000000    0.6700159999999999 O
   0.2402229999999999    0.5702070000000000    0.1685760000000001 O
   0.2310660000000000    0.2310660000000000    0.0000000000000000 O
  -0.0000000000000000    0.2310660000000000    0.2310660000000000 O
   0.3299829999999999    0.7597769999999999    0.9283519999999998 O
   0.8314240000000001    0.4016310000000000    0.0716480000000000 O
   0.7597769999999999    0.9283519999999998    0.3299840000000001 O
   0.1685760000000000    0.2402230000000000    0.5702070000000000 O
