Ge24 Ru16
1.0
   5.7838149999999997    0.0000000000000000    0.0000000000000000
   0.0000000000000000    9.3382570000000005    0.0000000000000000
   0.0000000000000000    0.0000000000000000   11.5769269999999995
Ge Ru
24 16
direct
   0.5980150000000000    0.1001040000000000    0.3642460000000000 Ge
   0.0980150000000000    0.3998960000000000    0.1357540000000000 Ge
   0.9019850000000000    0.1001040000000000    0.6357540000000002 Ge
   0.4019850000000000    0.3998960000000000    0.8642460000000001 Ge
   0.4019850000000000    0.8998960000000000    0.6357540000000002 Ge
   0.9019850000000000    0.6001040000000000    0.8642460000000001 Ge
   0.0980150000000000    0.8998960000000000    0.3642460000000000 Ge
   0.5980150000000000    0.6001040000000000    0.1357540000000000 Ge
   0.9129310000000000    0.0678930000000000    0.1728740000000000 Ge
   0.4129310000000000    0.4321070000000000    0.3271260000000000 Ge
   0.5870690000000000    0.0678930000000000    0.8271260000000000 Ge
   0.0870690000000000    0.4321070000000000    0.6728740000000000 Ge
   0.0870690000000000    0.9321070000000000    0.8271260000000000 Ge
   0.5870690000000000    0.5678930000000000    0.6728740000000000 Ge
   0.4129310000000000    0.9321070000000000    0.1728740000000000 Ge
   0.9129310000000000    0.5678930000000000    0.3271260000000000 Ge
   0.5364700000000000    0.7194419999999999    0.4263130000000000 Ge
   0.0364700000000000    0.7805580000000000    0.0736870000000000 Ge
   0.9635299999999999    0.7194419999999999    0.5736869999999999 Ge
   0.4635300000000000    0.7805580000000000    0.9263130000000002 Ge
   0.4635300000000000    0.2805580000000000    0.5736869999999999 Ge
   0.9635299999999999    0.2194420000000000    0.9263130000000002 Ge
   0.0364700000000000    0.2805580000000000    0.4263130000000000 Ge
   0.5364700000000000    0.2194420000000000    0.0736870000000000 Ge
   0.7499999999999999    0.9272049999999998    0.5000000000000000 Ru
   0.2500000000000000    0.5727950000000001    0.0000000000000000 Ru
   0.2500000000000000    0.0727950000000000    0.5000000000000000 Ru
   0.7499999999999999    0.4272049999999999    0.0000000000000000 Ru
   0.7499999999999999    0.4541430000000000    0.5000000000000000 Ru
   0.2500000000000000    0.0458570000000000    0.0000000000000000 Ru
   0.2500000000000000    0.5458570000000000    0.5000000000000000 Ru
   0.7499999999999999    0.9541429999999999    0.0000000000000000 Ru
   0.7588230000000000    0.3125830000000000    0.2531830000000000 Ru
   0.2588230000000000    0.1874170000000000    0.2468170000000000 Ru
   0.7411769999999999    0.3125830000000000    0.7468170000000000 Ru
   0.2411770000000000    0.1874170000000000    0.7531830000000000 Ru
   0.2411770000000000    0.6874169999999999    0.7468170000000000 Ru
   0.7411769999999999    0.8125830000000001    0.7531830000000000 Ru
   0.2588230000000000    0.6874169999999999    0.2531830000000000 Ru
   0.7588230000000000    0.8125830000000001    0.2468170000000000 Ru
