K6 Tc3
1.0
   4.8687769999999997   -8.4329689999999999    0.0000000000000000
   4.8687769999999997    8.4329689999999999    0.0000000000000000
   0.0000000000000000    0.0000000000000000    4.9448359999999996
K Tc
6 3
direct
   0.4092270000000000    0.4092270000000000    0.0000000000000000 K
   0.5907730000000000   -0.0000000000000000    0.0000000000000000 K
  -0.0000000000000000    0.5907730000000000    0.0000000000000000 K
   0.7414020000000000    0.7414020000000000    0.5000000000000000 K
   0.2585980000000000   -0.0000000000000000    0.5000000000000000 K
  -0.0000000000000000    0.2585980000000000    0.5000000000000000 K
   0.0000000000000000    0.0000000000000000    0.0000000000000000 Tc
   0.6666670000000000    0.3333330000000000    0.5000000000000000 Tc
   0.3333330000000000    0.6666670000000000    0.5000000000000000 Tc
