Zr36 S8
1.0
  -4.8960819999999998    4.8960819999999998    9.6957380000000004
   4.8960819999999998   -4.8960819999999998    9.6957380000000004
   4.8960819999999998    4.8960819999999998   -9.6957380000000004
Zr S
36 8
direct
   0.5746720000000000    0.4262720000000000    0.1484000000000000 Zr
   0.1762720000000000    0.5278730000000000    0.3516000000000000 Zr
   0.1762720000000000    0.8246720000000000    0.6484000000000000 Zr
   0.1753280000000000    0.8237280000000000    0.3516000000000000 Zr
   0.4721270000000000    0.8237280000000000    0.6484000000000000 Zr
   0.5737280000000000    0.7221270000000000    0.1484000000000000 Zr
   0.5737279999999999    0.4253279999999999    0.8516000000000000 Zr
   0.2778730000000000    0.4262719999999999    0.8515999999999999 Zr
   0.5214479999999999    0.6935660000000000    0.8278820000000000 Zr
   0.4435660000000000    0.1156850000000000    0.6721179999999999 Zr
   0.4435660000000000    0.7714480000000000    0.3278820000000000 Zr
   0.2285519999999999    0.5564340000000000    0.6721180000000000 Zr
   0.8843149999999999    0.5564339999999999    0.3278820000000000 Zr
   0.3064339999999999    0.1343149999999999    0.8278819999999999 Zr
   0.3064340000000000    0.4785520000000000    0.1721180000000000 Zr
   0.8656850000000000    0.6935660000000000    0.1721180000000000 Zr
   0.9879280000000000    0.2676500000000001    0.7202780000000000 Zr
   0.0176499999999999    0.7973719999999999    0.7797219999999999 Zr
   0.0176500000000000    0.2379280000000000    0.2202780000000000 Zr
   0.7620720000000001    0.9823500000000001    0.7797220000000000 Zr
   0.2026279999999999    0.9823499999999999    0.2202780000000001 Zr
   0.7323499999999999    0.4526280000000000    0.7202780000000000 Zr
   0.7323499999999999    0.0120720000000000    0.2797220000000000 Zr
   0.5473719999999999    0.2676499999999999    0.2797220000000000 Zr
   0.1349940000000000    0.1349940000000000    0.0000000000000000 Zr
   0.8849940000000001    0.3849940000000001    0.5000000000000000 Zr
   0.6150060000000001    0.1150060000000000    0.4999999999999999 Zr
   0.8650060000000001    0.8650060000000001    0.0000000000000000 Zr
   0.3750000000000000    0.3041280000000000    0.4291280000000000 Zr
   0.0541280000000000    0.1250000000000000    0.4291280000000000 Zr
   0.6958719999999999    0.6249999999999999    0.5708720000000000 Zr
   0.8749999999999999    0.9458719999999999    0.5708720000000000 Zr
   0.3750000000000000    0.9458720000000002    0.0708720000000000 Zr
   0.6958719999999999    0.1250000000000000    0.0708720000000000 Zr
   0.0541280000000000    0.6250000000000001    0.9291280000000000 Zr
   0.8750000000000000    0.3041280000000001    0.9291279999999998 Zr
   0.0221170000000000    0.5221170000000001    0.0442350000000000 S
   0.2721170000000001    0.7278829999999999    0.0000000000000000 S
   0.7278829999999999    0.2721170000000001   -0.0000000000000000 S
   0.4778830000000000    0.9778829999999999    0.9557649999999999 S
   0.7278829999999999    0.7278829999999999    0.4557650000000000 S
   0.4778830000000001    0.5221170000000001    0.4999999999999999 S
   0.0221170000000000    0.9778829999999999    0.5000000000000000 S
   0.2721170000000000    0.2721170000000000    0.5442350000000000 S
