Pr3 Ag1
1.0
  -2.4206479999999999    2.4206479999999999    5.2341509999999998
   2.4206479999999999   -2.4206479999999999    5.2341509999999998
   2.4206479999999999    2.4206479999999999   -5.2341509999999998
Pr Ag
3 1
direct
   0.7500000000000000    0.2500000000000000    0.5000000000000000 Pr
   0.2500000000000001    0.7500000000000000    0.5000000000000000 Pr
   0.5000000000000000    0.5000000000000000    0.0000000000000000 Pr
   0.0000000000000000    0.0000000000000000    0.0000000000000000 Ag
