Fe6 O8
1.0
   1.4760000000000000   -4.8929359999999997    0.0000000000000000
   1.4760000000000000    4.8929359999999997    0.0000000000000000
   0.0000000000000000    0.0000000000000000   10.0011010000000002
Fe O
6 8
direct
   0.6180010000000000    0.3819990000000000    0.2500000000000000 Fe
   0.3819990000000000    0.6180010000000000    0.7500000000000000 Fe
   0.8678020000000000    0.1321980000000000    0.4247639999999999 Fe
   0.1321980000000000    0.8678020000000000    0.5752360000000000 Fe
   0.8678020000000000    0.1321980000000000    0.0752360000000000 Fe
   0.1321980000000000    0.8678020000000000    0.9247640000000000 Fe
   0.5000000000000000    0.5000000000000000    0.4999999999999999 O
   0.5000000000000000    0.5000000000000000    0.0000000000000000 O
   0.9614360000000000    0.0385640000000000    0.2500000000000000 O
   0.0385640000000000    0.9614360000000000    0.7500000000000000 O
   0.7714560000000000    0.2285439999999999    0.6124929999999998 O
   0.2285439999999999    0.7714560000000000    0.3875069999999999 O
   0.7714560000000000    0.2285439999999999    0.8875069999999999 O
   0.2285439999999999    0.7714560000000000    0.1124930000000000 O
