Tb20 Bi12
1.0
   8.3636800000000004    0.0000000000000000    0.0000000000000000
   0.0000000000000000    9.5473119999999998    0.0000000000000000
   0.0000000000000000    0.0000000000000000   12.1647540000000003
Tb Bi
20 12
direct
   0.8077680000000000    0.5610130000000000    0.0657900000000000 Tb
   0.6922320000000000    0.9389870000000000    0.5657900000000000 Tb
   0.1922320000000000    0.0610130000000000    0.9342100000000000 Tb
   0.3077680000000000    0.4389870000000001    0.4342099999999999 Tb
   0.1922320000000000    0.4389870000000001    0.9342100000000000 Tb
   0.3077680000000000    0.0610130000000000    0.4342099999999999 Tb
   0.8077680000000000    0.9389870000000000    0.0657900000000000 Tb
   0.6922320000000000    0.5610130000000000    0.5657900000000000 Tb
   0.1724880000000000    0.7500000000000001    0.2295400000000000 Tb
   0.3275120000000000    0.7500000000000001    0.7295400000000000 Tb
   0.8275120000000000    0.2500000000000000    0.7704599999999999 Tb
   0.6724880000000000    0.2500000000000000    0.2704599999999999 Tb
   0.4754330000000000    0.7500000000000001    0.0042450000000000 Tb
   0.0245670000000000    0.7500000000000001    0.5042450000000001 Tb
   0.5245670000000000    0.2500000000000000    0.9957549999999999 Tb
   0.9754330000000001    0.2500000000000000    0.4957549999999999 Tb
   0.6570870000000000    0.7500000000000001    0.2914950000000000 Tb
   0.8429130000000000    0.7500000000000001    0.7914949999999999 Tb
   0.3429130000000000    0.2500000000000000    0.7085050000000001 Tb
   0.1570870000000000    0.2500000000000000    0.2085050000000000 Tb
   0.4029240000000000    0.7500000000000001    0.4754380000000000 Bi
   0.0970760000000000    0.7500000000000001    0.9754380000000000 Bi
   0.5970760000000001    0.2500000000000000    0.5245619999999999 Bi
   0.9029239999999999    0.2500000000000000    0.0245620000000000 Bi
   0.9344240000000000    0.5082890000000000    0.3251290000000000 Bi
   0.5655760000000000    0.9917110000000000    0.8251289999999999 Bi
   0.0655760000000000    0.0082890000000000    0.6748709999999999 Bi
   0.4344240000000000    0.4917110000000001    0.1748710000000000 Bi
   0.0655760000000000    0.4917110000000001    0.6748709999999999 Bi
   0.4344240000000000    0.0082890000000000    0.1748710000000000 Bi
   0.9344240000000000    0.9917110000000000    0.3251290000000000 Bi
   0.5655760000000000    0.5082890000000000    0.8251289999999999 Bi
