Ta12 Cl36
1.0
   0.0000000000000000   10.0485509999999998   10.0485509999999998
  10.0485509999999998    0.0000000000000000   10.0485509999999998
  10.0485509999999998   10.0485509999999998    0.0000000000000000
Ta Cl
12 36
direct
   0.6088400000000002    0.6088400000000000    0.3911599999999999 Ta
   0.3911600000000001    0.3911600000000000    0.6088399999999999 Ta
   0.6088400000000002    0.3911600000000000    0.6088400000000000 Ta
   0.3911600000000001    0.6088399999999999    0.3911600000000001 Ta
   0.3911600000000000    0.6088400000000000    0.6088400000000000 Ta
   0.6088399999999999    0.3911600000000001    0.3911600000000001 Ta
   0.6411600000000001    0.6411600000000000    0.8588399999999998 Ta
   0.8588400000000000    0.8588399999999999    0.6411599999999997 Ta
   0.6411600000000001    0.8588399999999998    0.6411600000000001 Ta
   0.8588400000000000    0.6411599999999998    0.8588399999999999 Ta
   0.8588399999999999    0.6411600000000000    0.6411600000000001 Ta
   0.6411599999999998    0.8588400000000000    0.8588400000000002 Ta
   0.7281500000000000    0.7281500000000000    0.2718500000000000 Cl
   0.2718500000000000    0.2718500000000000    0.7281500000000000 Cl
   0.7281500000000000    0.2718500000000000    0.7281500000000001 Cl
   0.2718500000000000    0.7281500000000001    0.2718500000000000 Cl
   0.2718500000000001    0.7281500000000000    0.7281500000000001 Cl
   0.7281500000000001    0.2718500000000000    0.2718500000000000 Cl
   0.5218500000000001    0.5218500000000000    0.9781500000000000 Cl
   0.9781500000000000    0.9781500000000000    0.5218500000000000 Cl
   0.5218500000000001    0.9781500000000000    0.5218500000000001 Cl
   0.9781500000000001    0.5218500000000000    0.9781500000000001 Cl
   0.9781500000000001    0.5218500000000000    0.5218500000000001 Cl
   0.5218500000000001    0.9781500000000000    0.9781500000000001 Cl
   0.7423419999999999    0.2586130000000000    0.4995230000000001 Cl
   0.2586130000000000    0.7423419999999999    0.4995230000000001 Cl
   0.4995230000000000    0.4995230000000001    0.7423419999999999 Cl
   0.4995230000000001    0.4995230000000001    0.2586130000000000 Cl
   0.2586130000000000    0.4995230000000001    0.7423420000000001 Cl
   0.7423419999999999    0.4995230000000000    0.2586130000000000 Cl
   0.4995230000000000    0.7423419999999999    0.4995230000000001 Cl
   0.4995230000000001    0.2586130000000000    0.4995230000000000 Cl
   0.4995229999999999    0.7423419999999999    0.2586130000000000 Cl
   0.4995229999999999    0.2586130000000001    0.7423420000000001 Cl
   0.7423419999999998    0.4995230000000001    0.4995230000000001 Cl
   0.2586130000000000    0.4995230000000001    0.4995230000000000 Cl
   0.5076579999999999    0.9913870000000000    0.7504770000000002 Cl
   0.9913870000000000    0.5076580000000001    0.7504769999999999 Cl
   0.7504770000000001    0.7504769999999999    0.5076579999999999 Cl
   0.7504769999999999    0.7504770000000001    0.9913870000000000 Cl
   0.9913870000000000    0.7504769999999999    0.5076579999999999 Cl
   0.5076579999999999    0.7504770000000001    0.9913870000000001 Cl
   0.7504770000000001    0.5076579999999999    0.7504769999999999 Cl
   0.7504769999999999    0.9913870000000000    0.7504770000000001 Cl
   0.7504770000000001    0.5076579999999999    0.9913869999999999 Cl
   0.7504770000000001    0.9913869999999999    0.5076579999999999 Cl
   0.5076579999999999    0.7504770000000001    0.7504770000000002 Cl
   0.9913869999999999    0.7504770000000001    0.7504770000000001 Cl
