Fe14 S7
1.0
   1.5016760000000000    4.8884520000000000    0.0000000000000000
  -1.5016760000000000    4.8884520000000000    0.0000000000000000
   0.0000000000000000    2.1384560000000001   17.7161700000000017
Fe S
14 7
direct
   0.4648900000000001    0.4648900000000001    0.1485370000000000 Fe
   0.2931570000000000    0.2931570000000000    0.0549190000000000 Fe
   0.0420710000000000    0.0420710000000000    0.3811020000000000 Fe
   0.8948010000000001    0.8948010000000001    0.2568090000000000 Fe
   0.3207330000000000    0.3207330000000000    0.4117810000000000 Fe
   0.6090800000000000    0.6090800000000000    0.2493450000000000 Fe
   0.7351980000000000    0.7351980000000000    0.5533220000000000 Fe
   0.4696170000000000    0.4696170000000000    0.5219460000000000 Fe
   0.1685600000000000    0.1685600000000000    0.6945800000000000 Fe
   0.8801300000000001    0.8801300000000001    0.6707950000000000 Fe
   0.5878030000000000    0.5878030000000000    0.8389000000000000 Fe
   0.3045800000000000    0.3045800000000000    0.8119840000000000 Fe
   0.0047690000000000    0.0047690000000000    0.9874769999999999 Fe
   0.7354940000000001    0.7354940000000001    0.9409630000000000 Fe
   0.6267690000000001    0.6267690000000001    0.0563530000000000 S
   0.2440210000000000    0.2440210000000000    0.1848740000000000 S
   0.7199900000000000    0.7199900000000000    0.3482530000000000 S
   0.1325520000000000    0.1325520000000000    0.4907490000000000 S
   0.5459200000000001    0.5459200000000001    0.6340110000000000 S
   0.9766360000000001    0.9766360000000001    0.7788430000000000 S
   0.3979910000000000    0.3979910000000000    0.9249330000000000 S
