Yb2 Ga4
1.0
   2.2304970000000002   -3.8633350000000002    0.0000000000000000
   2.2304970000000002    3.8633350000000002    0.0000000000000000
   0.0000000000000000    0.0000000000000000    7.1810440000000000
Yb Ga
2 4
direct
   0.0000000000000000    0.0000000000000000    0.7500000000000000 Yb
   0.0000000000000000    0.0000000000000000    0.2500000000000000 Yb
   0.3333330000000000    0.6666670000000000    0.0453380000000000 Ga
   0.6666670000000000    0.3333330000000000    0.5453380000000000 Ga
   0.3333330000000000    0.6666670000000000    0.4546620000000000 Ga
   0.6666670000000000    0.3333330000000000    0.9546620000000000 Ga
