Zr4 Si4
1.0
   3.8033310000000000    0.0000000000000000    0.0000000000000000
   0.0000000000000000    5.3281179999999999    0.0000000000000000
   0.0000000000000000    0.0000000000000000    7.0301460000000002
Zr Si
4 4
direct
   0.2500000000000000    0.1246950000000000    0.1755830000000000 Zr
   0.7500000000000000    0.8753050000000000    0.8244169999999998 Zr
   0.7500000000000000    0.6246950000000000    0.3244170000000000 Zr
   0.2500000000000000    0.3753050000000000    0.6755829999999999 Zr
   0.2500000000000000    0.6382139999999999    0.0433490000000000 Si
   0.7500000000000000    0.3617860000000000    0.9566509999999999 Si
   0.7500000000000000    0.1382140000000000    0.4566510000000000 Si
   0.2500000000000000    0.8617860000000001    0.5433490000000000 Si
