Pd16 Pb16
1.0
   5.6753850000000003    0.0000000000000000    0.0000000000000000
  -0.9529590000000000    5.6048549999999997    0.0000000000000000
  -2.2546170000000001   -2.6586770000000000   21.6655020000000000
Pd Pb
16 16
direct
   0.4773700000000001    0.2338480000000000    0.2923160000000000 Pd
   0.5226300000000000    0.7661520000000001    0.7076840000000000 Pd
   0.3566590000000001    0.1158380000000000    0.5422020000000000 Pd
   0.6433410000000001    0.8841619999999999    0.4577980000000000 Pd
   0.5954270000000000    0.3574140000000000    0.0444330000000000 Pd
   0.4045730000000000    0.6425860000000000    0.9555670000000001 Pd
   0.0659360000000000    0.8023739999999999    0.2939130000000000 Pd
   0.9340639999999999    0.1976260000000000    0.7060870000000000 Pd
   0.0540190000000000    0.3159210000000000    0.4560660000000000 Pd
   0.9459810000000000    0.6840790000000000    0.5439340000000000 Pd
   0.7634370000000001    0.0012040000000000    0.2082520000000000 Pd
   0.2365630000000000    0.9987960000000000    0.7917480000000000 Pd
   0.1715360000000000    0.4339649999999999    0.2056450000000000 Pd
   0.8284640000000000    0.5660350000000000    0.7943549999999999 Pd
   0.1823560000000000    0.9203120000000000    0.0418720000000000 Pd
   0.8176440000000000    0.0796880000000001    0.9581280000000000 Pd
   0.4356100000000000    0.2342190000000001    0.6794660000000000 Pb
   0.5643900000000001    0.7657810000000000    0.3205340000000000 Pb
   0.3133240000000000    0.1086760000000001    0.9273310000000000 Pb
   0.6866760000000001    0.8913240000000000    0.0726690000000000 Pb
   0.0041030000000000    0.2998410000000000    0.3222170000000000 Pb
   0.9958969999999999    0.7001590000000000    0.6777830000000000 Pb
   0.5578390000000000    0.3553290000000000    0.4296759999999999 Pb
   0.4421610000000000    0.6446710000000000    0.5703240000000001 Pb
   0.1174790000000000    0.8205960000000000    0.4274610000000000 Pb
   0.8825210000000000    0.1794040000000000    0.5725390000000000 Pb
   0.2378700000000000    0.9421140000000000    0.1770620000000000 Pb
   0.7621300000000000    0.0578860000000001    0.8229379999999999 Pb
   0.6783410000000000    0.4760099999999999    0.1800780000000000 Pb
   0.3216590000000000    0.5239900000000000    0.8199220000000000 Pb
   0.1259370000000000    0.4214530000000001    0.0699530000000000 Pb
   0.8740630000000001    0.5785470000000000    0.9300470000000000 Pb
