Nd4 Cl8
1.0
   3.6015880000000000    0.0000000000000000    0.0000000000000000
   0.0000000000000000    8.7623569999999997    0.0000000000000000
   0.0000000000000000    0.0000000000000000   10.0894250000000003
Nd Cl
4 8
direct
   0.2500000000000000    0.1276370000000000    0.1789060000000000 Nd
   0.7500000000000001    0.8723630000000000    0.8210940000000000 Nd
   0.2500000000000000    0.3723630000000000    0.6789060000000000 Nd
   0.7500000000000001    0.6276370000000000    0.3210940000000000 Nd
   0.2500000000000000    0.4501100000000001    0.1616770000000000 Cl
   0.7500000000000001    0.5498900000000000    0.8383230000000000 Cl
   0.2500000000000000    0.0498900000000000    0.6616770000000000 Cl
   0.7500000000000001    0.9501100000000000    0.3383229999999999 Cl
   0.2500000000000000    0.8329820000000000    0.0469530000000000 Cl
   0.7500000000000001    0.1670180000000000    0.9530470000000000 Cl
   0.2500000000000000    0.6670180000000000    0.5469529999999999 Cl
   0.7500000000000001    0.3329820000000000    0.4530470000000000 Cl
