Sr2 N12
1.0
   0.0000000000000000    5.8235780000000004    6.0518650000000003
   3.0921470000000002    0.0000000000000000    6.0518650000000003
   3.0921470000000002    5.8235780000000004    0.0000000000000000
Sr N
2 12
direct
   0.5000000000000000    0.5000000000000001    0.4999999999999999 Sr
   0.7500000000000000    0.7500000000000002    0.7499999999999999 Sr
   0.2895550000000000    0.4604730000000000    0.3378139999999999 N
   0.9121570000000001    0.3378140000000001    0.4604729999999998 N
   0.1239970000000000    0.1239970000000000    0.3760030000000000 N
   0.3760030000000000    0.3760030000000000    0.1239970000000000 N
   0.1260030000000000    0.1260030000000000    0.8739970000000000 N
   0.8739970000000001    0.8739970000000001    0.1260029999999999 N
   0.7895270000000001    0.9604450000000001    0.3378430000000001 N
   0.9121859999999999    0.3378430000000002    0.9604449999999999 N
   0.3378429999999999    0.9121860000000003    0.7895270000000000 N
   0.9604449999999999    0.7895270000000003    0.9121859999999998 N
   0.4604729999999999    0.2895550000000001    0.9121570000000000 N
   0.3378140000000000    0.9121570000000002    0.2895549999999999 N
