Ce3 Mg1
1.0
  -1.6280950000000001    3.0172530000000002    5.5124740000000001
   1.6280950000000001   -3.0172530000000002    5.5124740000000001
   1.6280950000000001    3.0172530000000002   -5.5124740000000001
Ce Mg
3 1
direct
   0.1527450000000000    0.4999999999999999    0.6527450000000000 Ce
   0.2554449999999999    0.2499429999999999    0.0055020000000000 Ce
   0.7555599999999999    0.7500570000000000    0.0055019999999999 Ce
   0.6695850000000000    0.0000000000000000    0.6695850000000000 Mg
