Te6 Mo3
1.0
   1.7793550000000000   -3.0819340000000000    0.0000000000000000
   1.7793550000000000    3.0819340000000000    0.0000000000000000
   0.0000000000000000    0.0000000000000000   33.0199679999999987
Te Mo
6 3
direct
   0.0000000000000000    0.0000000000000000    0.9451950000000000 Te
   0.3333330000000000    0.6666669999999998    0.7128110000000000 Te
   0.3333330000000000    0.6666669999999998    0.1775790000000000 Te
   0.3333330000000000    0.6666669999999998    0.8224210000000000 Te
   0.3333330000000000    0.6666669999999998    0.2871890000000000 Te
   0.0000000000000000    0.0000000000000000    0.0548050000000000 Te
   0.0000000000000000    0.0000000000000000    0.7676160000000000 Mo
   0.0000000000000000    0.0000000000000000    0.2323840000000000 Mo
   0.3333330000000000    0.6666669999999998    0.0000000000000000 Mo
