Sb16 O32
1.0
   3.2090090000000000    5.7643209999999998    0.0000000000000000
  -3.2090090000000000    5.7643209999999998    0.0000000000000000
   0.0000000000000000    1.4946379999999999   20.8751849999999983
Sb O
16 32
direct
   0.8306309999999999    0.3265859999999998    0.8782980000000001 Sb
   0.0303410000000000    0.0303410000000000    0.7285330000000001 Sb
   0.3265859999999998    0.8306309999999999    0.8782980000000001 Sb
   0.1535210000000000    0.1535210000000000    0.4907690000000001 Sb
   0.1965049999999999    0.6863459999999999    0.6132660000000001 Sb
   0.3591360000000000    0.3591360000000000    0.7750710000000000 Sb
   0.6959589999999999    0.6959589999999999    0.2539930000000000 Sb
   0.6863459999999999    0.1965049999999999    0.6132660000000001 Sb
   0.7257789999999998    0.2271150000000000    0.3789090000000001 Sb
   0.7543959999999998    0.7543959999999998    0.5084260000000000 Sb
   0.2271150000000000    0.7257789999999998    0.3789090000000001 Sb
   0.7837570000000001    0.2574760000000000    0.1395010000000000 Sb
   0.2574760000000000    0.7837570000000001    0.1395010000000000 Sb
   0.3001780000000000    0.3001780000000000    0.2633730000000000 Sb
   0.5370370000000000    0.5370370000000000    0.0109400000000000 Sb
   0.8106800000000001    0.8106800000000001    0.9980790000000002 Sb
   0.4549230000000000    0.8615190000000000    0.9724510000000000 O
   0.6543290000000000    0.6543290000000000    0.8373510000000001 O
   0.8615190000000000    0.4549230000000000    0.9724510000000000 O
   0.4671330000000000    0.4671330000000000    0.9243170000000002 O
   0.1753590000000000    0.1753590000000000    0.7723400000000000 O
   0.8461740000000000    0.3025979999999999    0.6653220000000001 O
   0.7316149999999999    0.1824330000000000    0.7860920000000000 O
   0.0043540000000000    0.0043540000000000    0.5554800000000000 O
   0.3025979999999999    0.8461740000000000    0.6653220000000001 O
   0.9170489999999998    0.9170489999999998    0.9239220000000001 O
   0.8798360000000000    0.8798360000000000    0.6699580000000001 O
   0.1824330000000000    0.7316149999999999    0.7860920000000000 O
   0.3386850000000000    0.8576790000000000    0.4414410000000000 O
   0.5089929999999999    0.5089929999999999    0.5649400000000000 O
   0.0410869999999999    0.5679369999999999    0.5625640000000000 O
   0.5648830000000000    0.5648830000000000    0.3306120000000000 O
   0.8576790000000000    0.3386850000000000    0.4414410000000000 O
   0.3698790000000000    0.3698790000000000    0.6722880000000000 O
   0.4004759999999999    0.4004759999999999    0.4230360000000000 O
   0.5679369999999999    0.0410869999999999    0.5625640000000000 O
   0.0516050000000000    0.0516050000000000    0.3347880000000000 O
   0.8645150000000000    0.3878540000000000    0.2097770000000000 O
   0.5953930000000000    0.1222020000000000    0.3134530000000000 O
   0.1157960000000000    0.1157960000000000    0.1034130000000000 O
   0.3878540000000000    0.8645150000000000    0.2097770000000000 O
   0.8866460000000000    0.8866460000000000    0.4295700000000000 O
   0.9154600000000001    0.9154600000000001    0.1733460000000000 O
   0.1222020000000000    0.5953930000000000    0.3134530000000000 O
   0.6122520000000000    0.6122520000000000    0.0982140000000000 O
   0.2150479999999999    0.6681060000000000    0.0566720000000000 O
   0.4289770000000000    0.4289770000000000    0.1833190000000000 O
   0.6681060000000000    0.2150479999999999    0.0566720000000000 O
