Ti9 O10
1.0
   4.5043759999999997    0.0000000000000000    0.0000000000000000
  -2.0144419999999998    5.1454630000000003    0.0000000000000000
  -0.0853670000000000   -1.5878429999999999    8.8086190000000002
Ti O
9 10
direct
   0.8035140000000001    0.9669450000000001    0.3957060000000000 Ti
   0.3703170000000001    0.2933140000000000    0.2287270000000000 Ti
   0.6296830000000000    0.7066860000000000    0.7712730000000000 Ti
   0.1964860000000000    0.0330550000000000    0.6042940000000000 Ti
   0.0000000000000000    0.5000000000000000    0.5000000000000000 Ti
   0.2691330000000000    0.0143990000000000    0.9111410000000000 Ti
   0.9179229999999999    0.3327500000000000    0.8423740000000000 Ti
   0.0820770000000001    0.6672500000000001    0.1576260000000000 Ti
   0.7308670000000002    0.9856010000000001    0.0888590000000000 Ti
   0.7790589999999999    0.2710500000000000    0.2869750000000000 O
   0.2000750000000000    0.8061710000000001    0.3914860000000000 O
   0.2554830000000000    0.2749030000000001    0.4401760000000000 O
   0.7999250000000001    0.1938290000000000    0.6085140000000000 O
   0.4012420000000000    0.3206840000000000    0.7935400000000000 O
   0.7445170000000001    0.7250970000000001    0.5598240000000000 O
   0.2209410000000001    0.7289500000000001    0.7130250000000000 O
   0.8854160000000001    0.7021010000000000    0.9556429999999999 O
   0.1145840000000000    0.2978990000000001    0.0443570000000000 O
   0.5987580000000000    0.6793160000000001    0.2064600000000000 O
