Lu4 Co34
1.0
   4.1156850000000000   -7.1285749999999997    0.0000000000000000
   4.1156850000000000    7.1285749999999997    0.0000000000000000
   0.0000000000000000    0.0000000000000000    8.0651240000000008
Lu Co
4 34
direct
   0.0000000000000000    0.0000000000000000    0.2500000000000000 Lu
   0.0000000000000000    0.0000000000000000    0.7500000000000000 Lu
   0.3333330000000000    0.6666670000000000    0.7500000000000000 Lu
   0.6666670000000000    0.3333330000000000    0.2500000000000000 Lu
   0.3333330000000000    0.6666670000000000    0.3933510000000000 Co
   0.6666670000000000    0.3333330000000000    0.6066490000000000 Co
   0.6666670000000000    0.3333330000000000    0.8933510000000001 Co
   0.3333330000000000    0.6666670000000000    0.1066490000000000 Co
   0.5000000000000000    0.5000000000000000    0.5000000000000000 Co
   0.5000000000000000    0.0000000000000000    0.5000000000000000 Co
   0.0000000000000000    0.5000000000000000    0.5000000000000000 Co
   0.5000000000000000    0.5000000000000000    0.0000000000000000 Co
   0.5000000000000000    0.0000000000000000    0.0000000000000000 Co
   0.0000000000000000    0.5000000000000000    0.0000000000000000 Co
   0.3278789999999999    0.3722369999999999    0.2500000000000000 Co
   0.6277629999999998    0.9556410000000000    0.2500000000000000 Co
   0.0443590000000000    0.6721210000000000    0.2500000000000000 Co
   0.6277630000000000    0.6721210000000001    0.2500000000000000 Co
   0.0443590000000000    0.3722370000000000    0.2500000000000000 Co
   0.3278790000000000    0.9556410000000001    0.2500000000000000 Co
   0.6721210000000001    0.6277630000000000    0.7500000000000000 Co
   0.3722370000000000    0.0443590000000000    0.7500000000000000 Co
   0.9556410000000001    0.3278790000000000    0.7500000000000000 Co
   0.3722369999999999    0.3278789999999999    0.7500000000000000 Co
   0.9556410000000000    0.6277629999999998    0.7500000000000000 Co
   0.6721210000000000    0.0443590000000000    0.7500000000000000 Co
   0.1662480000000000    0.8337520000000000    0.5221980000000001 Co
   0.1662480000000000    0.3324950000000000    0.5221980000000001 Co
   0.6675050000000000    0.8337520000000000    0.5221980000000001 Co
   0.8337520000000000    0.1662480000000000    0.4778020000000000 Co
   0.8337520000000000    0.6675050000000000    0.4778020000000000 Co
   0.3324950000000000    0.1662480000000000    0.4778020000000000 Co
   0.8337520000000000    0.1662480000000000    0.0221980000000000 Co
   0.8337520000000000    0.6675050000000000    0.0221980000000000 Co
   0.3324950000000000    0.1662480000000000    0.0221980000000000 Co
   0.1662480000000000    0.8337520000000000    0.9778020000000001 Co
   0.1662480000000000    0.3324950000000000    0.9778020000000001 Co
   0.6675050000000000    0.8337520000000000    0.9778020000000001 Co
