P12 Ir4
1.0
  -4.0416369999999997    4.0416369999999997    4.0416369999999997
   4.0416369999999997   -4.0416369999999997    4.0416369999999997
   4.0416369999999997    4.0416369999999997   -4.0416369999999997
P Ir
12 4
direct
   0.8605630000000000    0.6452369999999999    0.5058000000000000 P
   0.8605630000000001    0.3547630000000000    0.2153260000000000 P
   0.1394370000000000    0.6452369999999999    0.7846740000000000 P
   0.3547630000000001    0.4942000000000000    0.1394370000000000 P
   0.1394370000000000    0.3547630000000000    0.4942000000000000 P
   0.6452369999999999    0.7846740000000000    0.1394370000000000 P
   0.2153260000000000    0.8605630000000000    0.3547630000000000 P
   0.6452369999999999    0.5058000000000000    0.8605630000000001 P
   0.7846740000000000    0.1394370000000000    0.6452369999999998 P
   0.3547630000000000    0.2153260000000000    0.8605630000000001 P
   0.5058000000000001    0.8605630000000002    0.6452369999999999 P
   0.4942000000000000    0.1394370000000000    0.3547630000000000 P
  -0.0000000000000000   -0.0000000000000000    0.5000000000000000 Ir
   0.0000000000000000    0.5000000000000000   -0.0000000000000000 Ir
   0.5000000000000000    0.0000000000000000    0.0000000000000000 Ir
   0.5000000000000000    0.5000000000000000    0.5000000000000000 Ir
