Mg4 Ge2
1.0
   0.0000000000000000    4.0270320000000002    4.0270320000000002
   4.0270320000000002    0.0000000000000000    4.0270320000000002
   4.0270320000000002    4.0270320000000002    0.0000000000000000
Mg Ge
4 2
direct
   0.1250000000000000    0.1250000000000000    0.1250000000000000 Mg
   0.6249999999999999    0.1250000000000000    0.1250000000000000 Mg
   0.1250000000000000    0.6249999999999999    0.1250000000000000 Mg
   0.1250000000000000    0.1250000000000000    0.6249999999999999 Mg
   0.5000000000000000    0.5000000000000000    0.5000000000000000 Ge
   0.7500000000000000    0.7500000000000000    0.7500000000000000 Ge
