Mg1 Re3
1.0
   0.0000000000000000    3.1145280000000000    3.1145280000000000
   3.1145280000000000    0.0000000000000000    3.1145280000000000
   3.1145280000000000    3.1145280000000000    0.0000000000000000
Mg Re
1 3
direct
   0.0000000000000000    0.0000000000000000    0.0000000000000000 Mg
   0.2500000000000000    0.2500000000000000    0.2500000000000000 Re
   0.4999999999999999    0.5000000000000000    0.5000000000000000 Re
   0.7500000000000000    0.7500000000000000    0.7500000000000000 Re
