Dy16 O24
1.0
  -5.3379870000000000    5.3379870000000000    5.3379870000000000
   5.3379870000000000   -5.3379870000000000    5.3379870000000000
   5.3379870000000000    5.3379870000000000   -5.3379870000000000
Dy O
16 24
direct
   0.7175379999999999    0.7500000000000000    0.4675380000000000 Dy
   0.2500000000000001    0.0324620000000000    0.7824620000000000 Dy
   0.4675380000000000    0.7175379999999999    0.7500000000000000 Dy
   0.7500000000000000    0.4675380000000000    0.7175379999999999 Dy
   0.0324620000000000    0.7824620000000000    0.2500000000000001 Dy
   0.7824619999999999    0.2500000000000000    0.0324620000000000 Dy
   0.2824620000000000    0.2500000000000000    0.5324620000000000 Dy
   0.7500000000000001    0.9675380000000000    0.2175380000000000 Dy
   0.5324620000000001    0.2824620000000000    0.2500000000000000 Dy
   0.2499999999999999    0.5324620000000000    0.2824620000000000 Dy
   0.9675380000000000    0.2175379999999999    0.7500000000000001 Dy
   0.2175380000000000    0.7500000000000002    0.9675380000000000 Dy
   0.5000000000000000    0.5000000000000000    0.0000000000000000 Dy
   0.0000000000000000    0.0000000000000000    0.0000000000000000 Dy
  -0.0000000000000000    0.5000000000000000    0.5000000000000000 Dy
   0.5000000000000000    0.0000000000000000    0.5000000000000000 Dy
   0.2294350000000000    0.2718350000000000    0.7602839999999998 O
   0.0115520000000000    0.4691509999999999    0.7397160000000000 O
   0.2705650000000000    0.0308490000000000    0.0424000000000000 O
   0.7397160000000000    0.0115520000000000    0.4691509999999999 O
   0.2718349999999999    0.7602839999999998    0.2294350000000000 O
   0.2281650000000000    0.4576000000000001    0.4884480000000000 O
   0.4576000000000000    0.4884480000000000    0.2281650000000000 O
   0.4691509999999999    0.7397159999999999    0.0115520000000000 O
   0.0424000000000000    0.2705650000000000    0.0308490000000000 O
   0.0308490000000000    0.0424000000000000    0.2705650000000000 O
   0.7602839999999998    0.2294350000000000    0.2718349999999999 O
   0.4884480000000000    0.2281650000000000    0.4576000000000000 O
   0.7705649999999999    0.7281649999999998    0.2397160000000000 O
   0.9884479999999998    0.5308490000000000    0.2602840000000000 O
   0.7294349999999999    0.9691510000000000    0.9575999999999999 O
   0.2602840000000001    0.9884479999999998    0.5308490000000000 O
   0.5115519999999999    0.7718349999999999    0.5424000000000000 O
   0.2397160000000000    0.7705650000000002    0.7281650000000000 O
   0.9691510000000000    0.9575999999999999    0.7294349999999999 O
   0.9575999999999999    0.7294349999999999    0.9691510000000000 O
   0.5308490000000000    0.2602840000000000    0.9884479999999999 O
   0.5424000000000000    0.5115520000000000    0.7718350000000000 O
   0.7718350000000000    0.5424000000000001    0.5115520000000000 O
   0.7281650000000000    0.2397160000000000    0.7705650000000001 O
