Zn3 P1
1.0
   3.9755180000000001    0.0000000000000000    0.0000000000000000
   0.0000000000000000    3.9755180000000001    0.0000000000000000
   0.0000000000000000    0.0000000000000000    3.9755180000000001
Zn P
3 1
direct
   0.0000000000000000    0.5000000000000000    0.5000000000000000 Zn
   0.5000000000000000    0.0000000000000000    0.5000000000000000 Zn
   0.5000000000000000    0.5000000000000000    0.0000000000000000 Zn
   0.0000000000000000    0.0000000000000000    0.0000000000000000 P
