Ce3 Pb1
1.0
   4.8462500000000004    0.0000000000000000    0.0000000000000000
   0.0000000000000000    4.8462500000000004    0.0000000000000000
   0.0000000000000000    0.0000000000000000    4.8462500000000004
Ce Pb
3 1
direct
   0.0000000000000000    0.5000000000000000    0.5000000000000000 Ce
   0.5000000000000000    0.0000000000000000    0.5000000000000000 Ce
   0.5000000000000000    0.5000000000000000    0.0000000000000000 Ce
   0.0000000000000000    0.0000000000000000    0.0000000000000000 Pb
