Hf4 Ga2
1.0
  -3.3560330000000000    3.3560330000000000    2.6457570000000001
   3.3560330000000000   -3.3560330000000000    2.6457570000000001
   3.3560330000000000    3.3560330000000000   -2.6457570000000001
Hf Ga
4 2
direct
   0.6536880000000000    0.1536880000000000    0.8073760000000001 Hf
   0.8463120000000001    0.6536880000000002    0.5000000000000000 Hf
   0.1536880000000000    0.3463120000000000    0.5000000000000000 Hf
   0.3463120000000001    0.8463120000000001    0.1926240000000000 Hf
   0.7500000000000001    0.7500000000000001    0.0000000000000000 Ga
   0.2500000000000000    0.2500000000000000    0.0000000000000000 Ga
