Te2 O6
1.0
   1.8861260000000000   -3.2668670000000000    0.0000000000000000
   1.8861260000000000    3.2668670000000000    0.0000000000000000
   0.0000000000000000    0.0000000000000000   11.7543740000000003
Te O
2 6
direct
   0.6666670000000000    0.3333329999999999    0.7500000000000000 Te
   0.3333330000000000    0.6666669999999999    0.2500000000000000 Te
   0.3333330000000000    0.6666669999999999    0.4027470000000000 O
   0.6666670000000000    0.3333329999999999    0.9027470000000000 O
   0.6666670000000000    0.3333329999999999    0.5972530000000000 O
   0.3333330000000000    0.6666669999999999    0.0972530000000000 O
   0.0000000000000000    0.0000000000000000    0.2500000000000000 O
   0.0000000000000000    0.0000000000000000    0.7500000000000000 O
