Mg3 As2
1.0
   2.1502360000000000   -3.7243189999999999    0.0000000000000000
   2.1502360000000000    3.7243189999999999    0.0000000000000000
   0.0000000000000000    0.0000000000000000    6.7697750000000001
Mg As
3 2
direct
   0.6666670000000000    0.3333330000000000    0.3587310000000000 Mg
   0.3333330000000000    0.6666670000000000    0.6412690000000001 Mg
   0.0000000000000000    0.0000000000000000    0.0000000000000000 Mg
   0.6666670000000000    0.3333330000000000    0.7695790000000000 As
   0.3333330000000000    0.6666670000000000    0.2304210000000000 As
