Cd43 Pd8
1.0
   7.2102719999999998   -7.1994400000000001    0.0000000000000000
   7.2102719999999998    7.1994400000000001    0.0000000000000000
   0.0216480000000000    0.0000000000000000   10.1891850000000002
Cd Pd
43 8
direct
   0.6051450000000002    0.6051450000000000    0.6051450000000002 Cd
   0.6054870000000000    0.3941310000000000    0.3941310000000001 Cd
   0.3941310000000000    0.3941310000000000    0.6054870000000001 Cd
   0.3941310000000001    0.6054869999999999    0.3941310000000001 Cd
   0.5001740000000000    0.8575659999999998    0.5001740000000001 Cd
   0.5001740000000000    0.5001739999999999    0.8575660000000001 Cd
   0.8575659999999999    0.5001739999999999    0.5001740000000001 Cd
   0.4987860000000001    0.1414910000000000    0.4987860000000000 Cd
   0.4987860000000000    0.4987859999999999    0.1414910000000000 Cd
   0.1414910000000000    0.4987860000000000    0.4987860000000000 Cd
   0.0524160000000000    0.2940309999999999    0.2940310000000000 Cd
   0.2940310000000000    0.0524160000000000    0.2940310000000000 Cd
   0.2940310000000000    0.2940309999999999    0.0524160000000000 Cd
   0.0471580000000000    0.6962339999999999    0.6962340000000000 Cd
   0.3046270000000001    0.9541819999999999    0.6944810000000000 Cd
   0.3046270000000000    0.6944809999999999    0.9541820000000000 Cd
   0.9541820000000001    0.6944809999999999    0.3046270000000000 Cd
   0.6944810000000001    0.9541819999999999    0.3046270000000000 Cd
   0.6962340000000000    0.6962339999999999    0.0471580000000000 Cd
   0.9541820000000000    0.3046270000000000    0.6944810000000000 Cd
   0.6962340000000000    0.0471580000000000    0.6962340000000000 Cd
   0.6944810000000000    0.3046269999999999    0.9541820000000000 Cd
   0.5459420000000000    0.8069779999999998    0.8069780000000000 Cd
   0.8069779999999999    0.5459429999999998    0.8069780000000000 Cd
   0.8069780000000000    0.8069779999999999    0.5459420000000000 Cd
   0.5421439999999998    0.1932379999999999    0.1932380000000000 Cd
   0.8075759999999998    0.4547829999999998    0.1925100000000000 Cd
   0.8075760000000000    0.1925100000000000    0.4547830000000000 Cd
   0.4547830000000000    0.1925099999999999    0.8075760000000001 Cd
   0.1925100000000000    0.4547829999999999    0.8075760000000001 Cd
   0.1932380000000000    0.1932380000000000    0.5421440000000000 Cd
   0.4547829999999999    0.8075759999999997    0.1925100000000000 Cd
   0.1932380000000000    0.5421439999999998    0.1932380000000000 Cd
   0.1925100000000000    0.8075760000000000    0.4547830000000000 Cd
   0.0073470000000000    0.3455450000000000    0.0073470000000000 Cd
   0.0073470000000000    0.0073470000000000    0.3455450000000000 Cd
   0.3455450000000000    0.0073470000000000    0.0073470000000000 Cd
   0.9993179999999999    0.6426289999999999    0.9993180000000000 Cd
   0.9993180000000000    0.9993179999999998    0.6426290000000000 Cd
   0.6426290000000000    0.9993179999999999    0.9993180000000000 Cd
   0.1055400000000001    0.9030569999999998    0.9030570000000001 Cd
   0.9030570000000000    0.9030569999999998    0.1055400000000000 Cd
   0.9030569999999999    0.1055399999999999    0.9030570000000001 Cd
   0.8291240000000001    0.8291239999999999    0.8291240000000000 Pd
   0.8233030000000001    0.1735050000000000    0.1735050000000000 Pd
   0.1735050000000000    0.1735050000000000    0.8233030000000001 Pd
   0.1735050000000000    0.8233030000000000    0.1735050000000000 Pd
   0.3295780000000000    0.3295780000000000    0.3295780000000000 Pd
   0.3285540000000001    0.6718279999999999    0.6718280000000001 Pd
   0.6718280000000000    0.6718279999999999    0.3285540000000000 Pd
   0.6718280000000000    0.3285540000000000    0.6718280000000001 Pd
