Bi36 Ir9
1.0
   8.0763780000000001  -13.3286140000000000    0.0000000000000000
   8.0763780000000001   13.3286140000000000    0.0000000000000000
 -13.9201090000000001    0.0000000000000000    7.0078800000000001
Bi Ir
36 9
direct
   0.7509940000000001    0.6330670000000002    0.0494130000000000 Bi
   0.0494130000000001    0.7509940000000001    0.6330670000000002 Bi
   0.6330670000000002    0.0494130000000001    0.7509940000000002 Bi
   0.0494130000000001    0.6330670000000002    0.7509940000000002 Bi
   0.7509940000000001    0.0494130000000001    0.6330670000000002 Bi
   0.6330670000000002    0.7509940000000001    0.0494130000000000 Bi
   0.2490060000000001    0.3669330000000000    0.9505870000000001 Bi
   0.9505870000000001    0.2490060000000001    0.3669330000000001 Bi
   0.3669330000000001    0.9505870000000001    0.2490060000000000 Bi
   0.9505870000000001    0.3669330000000001    0.2490060000000000 Bi
   0.2490060000000001    0.9505870000000001    0.3669330000000001 Bi
   0.3669330000000000    0.2490060000000001    0.9505870000000001 Bi
   0.8185829999999999    0.6935660000000000    0.3295650000000000 Bi
   0.3295650000000001    0.8185829999999999    0.6935660000000001 Bi
   0.6935660000000000    0.3295649999999999    0.8185830000000001 Bi
   0.3295649999999999    0.6935660000000000    0.8185830000000001 Bi
   0.8185829999999999    0.3295650000000001    0.6935660000000001 Bi
   0.6935660000000000    0.8185829999999999    0.3295650000000000 Bi
   0.1814170000000000    0.3064339999999999    0.6704350000000000 Bi
   0.6704350000000000    0.1814170000000000    0.3064340000000000 Bi
   0.3064340000000000    0.6704349999999999    0.1814170000000000 Bi
   0.6704349999999999    0.3064340000000000    0.1814170000000000 Bi
   0.1814170000000000    0.6704350000000000    0.3064340000000000 Bi
   0.3064339999999999    0.1814170000000000    0.6704350000000000 Bi
   0.3810170000000001    0.2014380000000001    0.3810170000000001 Bi
   0.3810170000000001    0.3810170000000001    0.2014380000000000 Bi
   0.2014380000000001    0.3810170000000001    0.3810170000000001 Bi
   0.6189830000000002    0.7985620000000002    0.6189829999999999 Bi
   0.6189829999999999    0.6189829999999999    0.7985620000000000 Bi
   0.7985620000000002    0.6189830000000002    0.6189829999999999 Bi
   0.1678580000000000    0.4283380000000000    0.1678580000000000 Bi
   0.1678580000000000    0.1678580000000000    0.4283380000000001 Bi
   0.4283380000000000    0.1678580000000000    0.1678580000000000 Bi
   0.8321420000000000    0.5716620000000001    0.8321420000000000 Bi
   0.8321420000000000    0.8321420000000000    0.5716620000000000 Bi
   0.5716620000000001    0.8321420000000000    0.8321420000000000 Bi
   0.3307830000000000    0.6692170000000001    0.5000000000000000 Ir
   0.5000000000000001    0.3307830000000000    0.6692170000000000 Ir
   0.6692170000000000    0.4999999999999999    0.3307830000000000 Ir
   0.4999999999999999    0.6692170000000000    0.3307830000000000 Ir
   0.3307830000000000    0.5000000000000001    0.6692170000000000 Ir
   0.6692170000000001    0.3307830000000000    0.5000000000000000 Ir
   0.5000000000000001    0.5000000000000001    0.0000000000000000 Ir
   0.0000000000000000    0.5000000000000000    0.5000000000000000 Ir
   0.5000000000000000    0.0000000000000000    0.5000000000000000 Ir
