B2 Pt6
1.0
   3.5786210000000001   -6.1983530000000000    0.0000000000000000
   3.5786210000000001    6.1983530000000000    0.0000000000000000
   0.0000000000000000    0.0000000000000000    2.7552460000000001
B Pt
2 6
direct
   0.3333330000000000    0.6666670000000000    0.7500000000000000 B
   0.6666670000000000    0.3333330000000000    0.2500000000000000 B
   0.1974100000000000    0.3948199999999999    0.2500000000000000 Pt
   0.6051800000000001    0.8025900000000001    0.2500000000000000 Pt
   0.1974099999999999    0.8025900000000000    0.2500000000000000 Pt
   0.8025900000000001    0.6051800000000001    0.7500000000000000 Pt
   0.3948199999999999    0.1974100000000000    0.7500000000000000 Pt
   0.8025900000000000    0.1974099999999999    0.7500000000000000 Pt
