Al11 Re4
1.0
   5.1782750000000002    0.0000000000000000    0.0000000000000000
  -0.8789630000000000    5.1158710000000003    0.0000000000000000
  -0.0143410000000000   -2.3976120000000001    8.6778770000000005
Al Re
11 4
direct
   0.8116610000000000    0.2756999999999999    0.6313900000000000 Al
   0.1883390000000000    0.7243000000000002    0.3686100000000000 Al
   0.1451640000000000    0.4595480000000000    0.8720530000000000 Al
   0.8548360000000000    0.5404520000000000    0.1279470000000000 Al
   0.0000000000000000    0.0000000000000000    0.0000000000000000 Al
   0.5015960000000000    0.0969110000000000    0.8710469999999999 Al
   0.4984040000000000    0.9030890000000000    0.1289530000000000 Al
   0.5697099999999999    0.3224600000000000    0.3768810000000000 Al
   0.4302900000000001    0.6775400000000000    0.6231190000000000 Al
   0.9371070000000000    0.8170530000000001    0.6725330000000000 Al
   0.0628930000000000    0.1829470000000000    0.3274670000000000 Al
   0.2838609999999999    0.1536510000000000    0.6033869999999999 Re
   0.7161390000000000    0.8463490000000000    0.3966129999999999 Re
   0.6627859999999999    0.6119259999999999    0.8680739999999999 Re
   0.3372140000000001    0.3880740000000000    0.1319260000000000 Re
