Fe3 Au1
1.0
  -1.8761630000000000    1.8761630000000000    3.8538009999999998
   1.8761630000000000   -1.8761630000000000    3.8538009999999998
   1.8761630000000000    1.8761630000000000   -3.8538009999999998
Fe Au
3 1
direct
   0.7500000000000000    0.2500000000000000    0.5000000000000000 Fe
   0.2500000000000000    0.7499999999999999    0.5000000000000000 Fe
   0.4999999999999999    0.4999999999999999    0.0000000000000000 Fe
   0.0000000000000000    0.0000000000000000    0.0000000000000000 Au
