V6 Pt2
1.0
   4.8151380000000001    0.0000000000000000    0.0000000000000000
   0.0000000000000000    4.8151380000000001    0.0000000000000000
   0.0000000000000000    0.0000000000000000    4.8151380000000001
V Pt
6 2
direct
   0.5000000000000000    0.2500000000000000    0.0000000000000000 V
   0.5000000000000000    0.7499999999999999    0.0000000000000000 V
   0.2500000000000000    0.0000000000000000    0.5000000000000000 V
   0.7499999999999999    0.0000000000000000    0.5000000000000000 V
   0.0000000000000000    0.5000000000000000    0.2500000000000000 V
   0.0000000000000000    0.5000000000000000    0.7499999999999999 V
   0.5000000000000000    0.5000000000000000    0.5000000000000000 Pt
   0.0000000000000000    0.0000000000000000    0.0000000000000000 Pt
