Si18 N24
1.0
   6.2630410000000003  -10.8479050000000008    0.0000000000000000
   6.2630410000000003   10.8479050000000008    0.0000000000000000
   0.0000000000000000    0.0000000000000000    8.0914310000000000
Si N
18 24
direct
   0.0105050000000000    0.2383750000000000    0.0979060000000000 Si
   0.1634540000000000    0.1228490000000000    0.2500000000000000 Si
   0.0406060000000000    0.1634540000000000    0.7500000000000000 Si
   0.9593939999999997    0.8365460000000000    0.2500000000000000 Si
   0.7721299999999999    0.0105050000000000    0.5979060000000000 Si
   0.8365459999999998    0.8771510000000000    0.7500000000000000 Si
   0.7721299999999999    0.0105050000000000    0.9020940000000000 Si
   0.1228489999999999    0.9593940000000001    0.7500000000000000 Si
   0.7616249999999999    0.7721300000000000    0.4020940000000000 Si
   0.2383749999999999    0.2278700000000000    0.9020940000000000 Si
   0.0105050000000000    0.2383750000000000    0.4020940000000000 Si
   0.7616249999999999    0.7721300000000000    0.0979060000000000 Si
   0.9894949999999998    0.7616250000000000    0.9020940000000000 Si
   0.8771509999999999    0.0406060000000000    0.2500000000000000 Si
   0.2278699999999998    0.9894950000000001    0.0979060000000000 Si
   0.9894949999999998    0.7616250000000000    0.5979060000000000 Si
   0.2278699999999998    0.9894950000000001    0.4020940000000000 Si
   0.2383749999999999    0.2278700000000000    0.5979060000000000 Si
   0.3158729999999998    0.9815320000000000    0.2500000000000000 N
   0.1444910000000000    0.1039300000000000    0.7500000000000000 N
   0.0986280000000000    0.2468550000000000    0.5701460000000000 N
   0.6841270000000000    0.0184680000000000    0.7500000000000000 N
   0.6656589999999998    0.6841270000000000    0.2500000000000000 N
   0.2468549999999999    0.1482270000000000    0.4298540000000000 N
   0.2468549999999999    0.1482270000000000    0.0701460000000000 N
   0.1039299999999999    0.9594400000000000    0.2500000000000000 N
   0.8555089999999997    0.8960699999999999    0.2500000000000000 N
   0.8960699999999999    0.0405599999999999    0.7500000000000000 N
   0.1482269999999998    0.9013720000000001    0.5701460000000000 N
   0.3343409999999999    0.3158730000000000    0.7500000000000000 N
   0.9013719999999997    0.7531450000000000    0.0701460000000000 N
   0.0184679999999999    0.3343410000000000    0.2500000000000000 N
   0.8517729999999999    0.0986279999999999    0.0701460000000000 N
   0.0986280000000000    0.2468550000000000    0.9298540000000000 N
   0.7531449999999997    0.8517730000000000    0.5701460000000000 N
   0.7531449999999997    0.8517730000000000    0.9298540000000000 N
   0.1482269999999998    0.9013720000000001    0.9298540000000000 N
   0.9013719999999997    0.7531450000000000    0.4298540000000000 N
   0.8517729999999999    0.0986279999999999    0.4298540000000000 N
   0.9815319999999998    0.6656589999999999    0.7500000000000000 N
   0.9594399999999997    0.8555089999999999    0.7500000000000000 N
   0.0405600000000000    0.1444910000000000    0.2500000000000000 N
