Ga1 Ag3
1.0
   1.4796110000000000   -2.5627610000000001    0.0000000000000000
   1.4796110000000000    2.5627610000000001    0.0000000000000000
   0.0000000000000000    0.0000000000000000    9.3113410000000005
Ga Ag
1 3
direct
   0.6666670000000000    0.3333330000000000    0.0000000000000000 Ga
   0.6666670000000000    0.3333330000000000    0.5000000000000000 Ag
   0.3333330000000000    0.6666670000000000    0.2420770000000000 Ag
   0.3333330000000000    0.6666670000000000    0.7579230000000000 Ag
