Li1 Zn3
1.0
   1.3990780000000000   -2.4232749999999998    0.0000000000000000
   1.3990780000000000    2.4232749999999998    0.0000000000000000
   0.0000000000000000    0.0000000000000000    8.8269400000000005
Li Zn
1 3
direct
   0.0000000000000000    0.0000000000000000    0.0000000000000000 Li
   0.0000000000000000    0.0000000000000000    0.5000000000000000 Zn
   0.6666669999999999    0.3333330000000000    0.2493840000000000 Zn
   0.6666669999999999    0.3333330000000000    0.7506159999999999 Zn
