Cd3 As1
1.0
  -2.2622659999999999    2.2622659999999999    4.3647640000000001
   2.2622659999999999   -2.2622659999999999    4.3647640000000001
   2.2622659999999999    2.2622659999999999   -4.3647640000000001
Cd As
3 1
direct
   0.7499999999999999    0.2500000000000001    0.4999999999999999 Cd
   0.2500000000000001    0.7499999999999999    0.4999999999999999 Cd
   0.5000000000000000    0.5000000000000000    0.0000000000000000 Cd
   0.0000000000000000    0.0000000000000000    0.0000000000000000 As
