Na1 Mg3
1.0
   4.6735270000000000    0.0000000000000000    0.0000000000000000
   0.0000000000000000    4.6735270000000000    0.0000000000000000
   0.0000000000000000    0.0000000000000000    4.6735270000000000
Na Mg
1 3
direct
   0.0000000000000000    0.0000000000000000    0.0000000000000000 Na
   0.5000000000000000    0.5000000000000000    0.0000000000000000 Mg
   0.5000000000000000    0.0000000000000000    0.5000000000000000 Mg
   0.0000000000000000    0.5000000000000000    0.5000000000000000 Mg
