Co2 As2
1.0
   1.7802789999999999   -3.0835330000000001    0.0000000000000000
   1.7802789999999999    3.0835330000000001    0.0000000000000000
   0.0000000000000000    0.0000000000000000    5.0357950000000002
Co As
2 2
direct
   0.0000000000000000    0.0000000000000000    0.5000000000000000 Co
   0.0000000000000000    0.0000000000000000    0.0000000000000000 Co
   0.3333330000000000    0.6666670000000000    0.2500000000000000 As
   0.6666670000000000    0.3333330000000000    0.7500000000000000 As
