W25 O75
1.0
  12.0655213799999999    0.5441577200000000    0.1788396800000000
   0.5434130900000000   12.6412169399999996   -0.1619479800000000
   0.1769650500000000   -0.1724502800000000   11.8992611900000007
W O
25 75
direct
   0.8421906900000001    0.9653960299999996    0.8669550700000000 W
   0.1350601400000001    0.0318130000000000    0.2373602600000000 W
   0.2123654700000000    0.6709860599999998    0.2649103600000000 W
   0.9839615000000003    0.3888771699999999    0.2565661799999999 W
   0.6330301100000001    0.8361496999999998    0.7333679700000000 W
   0.0942638800000000    0.5475067799999999    0.0131190500000000 W
   0.6376592200000000    0.2206667300000000    0.8336757000000000 W
   0.1340465000000001    0.9067748799999998    0.7702840800000000 W
   0.2510216300000001    0.6512556399999999    0.7981147899999999 W
   0.7629319300000001    0.8679506599999998    0.4422985799999999 W
   0.3579520200000000    0.9985510799999998    0.7297295200000000 W
   0.0046241500000000    0.3513061700000000    0.5790959900000000 W
   0.2483067900000001    0.3671276299999999    0.7723292299999999 W
   0.7883594100000001    0.4792273699999999    0.7873847899999998 W
   0.6336970800000001    0.4619668899999999    0.5210407800000000 W
   0.6623816200000000    0.1477078900000000    0.1329907500000000 W
   0.8979672800000001    0.6065733599999997    0.4576857600000001 W
   0.6810421700000002    0.7853759499999999    0.0386370900000000 W
   0.4898672900000000    0.4991683499999999    0.8868271200000000 W
   0.5568668800000000    0.3816899999999999    0.2557693300000000 W
   0.4535782600000001    0.6435498800000000    0.1699200900000000 W
   0.9802856500000002    0.1474497800000000    0.0753037000000000 W
   0.4678977200000001    0.2161590499999999    0.5578554300000000 W
   0.2939171000000000    0.2657807699999999    0.2943329900000000 W
   0.0325382900000000    0.8690446299999999    0.4555662799999999 W
   0.5327985000000000    0.5682618000000000    0.5288585300000000 O
   0.8431975300000002    0.4058579600000000    0.2309355600000000 O
   0.1733301500000000    0.3595276499999999    0.2848217300000000 O
   0.3644446300000001    0.2372280600000000    0.4404096300000000 O
   0.8356399000000002    0.6020570099999999    0.7570483599999999 O
   0.4971614200000001    0.9150114799999999    0.6987104200000001 O
   0.9804145300000003    0.5250894999999999    0.5523575300000000 O
   0.9876267500000002    0.3586893500000000    0.4170771500000000 O
   0.5389754200000001    0.3445875099999999    0.5324179400000000 O
   0.8104025900000003    0.1636200000000000    0.1309067900000000 O
   0.6839250600000001    0.4333927200000000    0.6608291799999999 O
   0.2139696100000000    0.6347062300000000    0.9529592299999999 O
   0.1411489100000000    0.9232494500000000    0.9152608499999999 O
   0.1951991800000000    0.0329505800000000    0.7206422399999999 O
   0.0935990900000000    0.9858319299999998    0.3898018599999999 O
   0.6307155800000002    0.5282255699999999    0.8432584799999999 O
   0.6245149200000001    0.7041566599999998    0.6978609499999999 O
   0.5988422000000001    0.3818848499999999    0.1137020000000000 O
   0.3573430200000001    0.4287465200000000    0.8715884699999998 O
   0.5281533899999999    0.7472043100000001    0.0983065500000000 O
   0.3868148200000001    0.1013120300000000    0.6232551699999999 O
   0.3629133100000001    0.7303164899999999    0.2752136600000000 O
   0.6606742800000002    0.4048335900000000    0.3637759500000000 O
   0.2230205900000000    0.2501326099999999    0.8365778099999999 O
   0.6842872100000001    0.8780105199999999    0.5801943899999998 O
   0.6109856700000001    0.1829434000000000    0.9934015899999998 O
   0.1370257900000000    0.4492964299999999    0.8977246500000000 O
   0.9577937500000001    0.5525114199999999    0.3254599500000000 O
   0.9877930700000003    0.0262808500000000    0.2003039100000000 O
   0.1346350700000000    0.1081506300000000    0.0893570800000000 O
   0.0434932600000000    0.4505270199999999    0.1237177500000000 O
   0.3612655799999999    0.3189633900000000    0.6713635999999999 O
   0.9754925500000001    0.7284447600000000    0.4879557400000000 O
   0.7980508100000001    0.8802988300000000    0.9803850999999999 O
   0.2182914800000000    0.9180865099999997    0.1928091500000000 O
   0.5338459300000001    0.5505215799999998    0.2558953800000000 O
   0.3856812900000001    0.0495736000000000    0.8611612199999999 O
   0.9774207100000002    0.6160743899999999    0.9640669099999999 O
   0.7322490699999999    0.0725483400000000    0.8393593300000000 O
   0.9969706100000001    0.2147233700000000    0.5795105200000000 O
   0.9022482500000002    0.8830936399999999    0.3478342500000000 O
   0.6669091200000000    0.9343921499999999    0.3583458299999999 O
   0.8886621700000001    0.9429193399999998    0.5165575000000000 O
   0.7719650400000001    0.7215219699999998    0.4173602299999999 O
   0.5638677000000000    0.1936615899999999    0.7062221999999999 O
   0.7592981900000002    0.2777427399999999    0.7979471200000000 O
   0.7314524800000001    0.7964390799999999    0.1746012400000000 O
   0.6054694100000001    0.8402559299999999    0.8911473600000001 O
   0.7843995900000001    0.8675272499999999    0.7630494599999998 O
   0.2395895600000001    0.5340289400000000    0.7113927499999999 O
   0.4163511300000000    0.6179205999999999    0.8193116099999999 O
   0.5525735500000000    0.3473330999999999    0.8754330899999999 O
   0.9732207000000002    0.9459846099999999    0.7727404400000000 O
   0.1313934300000000    0.7500149799999999    0.7643733799999999 O
   0.1371561400000000    0.3661127299999999    0.6508761999999999 O
   0.6405835900000000    0.0142550100000000    0.1384615900000000 O
   0.9248492100000001    0.0438495400000000    0.9698601099999999 O
   0.2112119200000000    0.5733847000000000    0.3633111199999999 O
   0.8977125100000001    0.3909734799999999    0.6884987600000000 O
   0.1012624400000000    0.8774620499999999    0.5875771700000000 O
   0.9977630400000003    0.2458063500000000    0.2069755899999999 O
   0.3176278200000001    0.5864554799999999    0.1483543000000000 O
   0.8381430500000001    0.4451465499999999    0.9189175500000000 O
   0.4895771800000001    0.5492621900000000    0.0313561500000000 O
   0.4084010000000001    0.3819359600000000    0.2949997400000000 O
   0.1122209700000000    0.6422790199999998    0.1544779100000000 O
   0.2979149400000000    0.8581873699999999    0.7442263799999999 O
   0.7692157000000001    0.5307263200000000    0.4840289000000000 O
   0.7347511500000000    0.6598911399999998    0.9936196399999999 O
   0.5691007100000001    0.1309331700000000    0.4875617500000000 O
   0.3514325300000001    0.2292920699999999    0.1612019700000000 O
   0.5881711800000001    0.2250981500000000    0.2566042199999999 O
   0.2149356500000001    0.1406049000000000    0.3086138400000000 O
   0.1298426800000000    0.7824535999999999    0.3472177399999999 O
   0.9817511900000003    0.2457009000000000    0.9766567200000000 O
