Mg3 Al1
1.0
   0.0000000000000000    3.4653040000000002    3.4653040000000002
   3.4653040000000002    0.0000000000000000    3.4653040000000002
   3.4653040000000002    3.4653040000000002    0.0000000000000000
Mg Al
3 1
direct
   0.0000000000000000    0.0000000000000000    0.0000000000000000 Mg
   0.2500000000000000    0.2500000000000000    0.2500000000000000 Mg
   0.7500000000000000    0.7500000000000000    0.7500000000000000 Mg
   0.5000000000000000    0.5000000000000000    0.5000000000000000 Al
