Zn14 P20
1.0
   0.0000000000000000   10.8654440000000001   13.0849499999999992
   2.2116859999999998    0.0000000000000000   13.0849499999999992
   2.2116859999999998   10.8654440000000001    0.0000000000000000
Zn P
14 20
direct
   0.9740080000000000    0.1860650000000000    0.2643490000000001 Zn
   0.5755780000000000    0.2643489999999999    0.1860650000000001 Zn
   0.0639349999999999    0.2759920000000001    0.6744220000000001 Zn
   0.9856510000000001    0.6744220000000000    0.2759920000000001 Zn
   0.2669030000000000    0.3271460000000000    0.7351860000000001 Zn
   0.6707649999999998    0.7351859999999999    0.3271460000000000 Zn
   0.9228540000000000    0.9830970000000000    0.5792350000000002 Zn
   0.5148140000000000    0.5792349999999999    0.9830970000000002 Zn
   0.9989430000000000    0.0010570000000000    0.0010570000000000 Zn
   0.2489430000000000    0.2510570000000000    0.2510570000000000 Zn
   0.3050629999999999    0.7710310000000001    0.4236390000000000 Zn
   0.5002670000000000    0.4236389999999999    0.7710310000000001 Zn
   0.4789690000000001    0.9449369999999999    0.7497330000000000 Zn
   0.8263610000000000    0.7497329999999999    0.9449370000000001 Zn
   0.1242380000000001    0.8807649999999999    0.2129540000000000 P
   0.7820430000000002    0.2129539999999998    0.8807650000000001 P
   0.3692350000000001    0.1257619999999999    0.4679570000000001 P
   0.0370460000000000    0.4679570000000000    0.1257620000000000 P
   0.4633570000000001    0.6579409999999999    0.6258049999999999 P
   0.2528980000000000    0.6258049999999998    0.6579410000000001 P
   0.5920590000000000    0.7866430000000000    0.9971020000000003 P
   0.6241949999999999    0.9971020000000002    0.7866430000000000 P
   0.7812660000000000    0.5964830000000000    0.6373649999999998 P
   0.9848870000000000    0.6373649999999998    0.5964830000000000 P
   0.6535170000000000    0.4687340000000000    0.2651130000000000 P
   0.6126350000000000    0.2651129999999999    0.4687340000000000 P
   0.2642070000000000    0.9721040000000000    0.3320120000000000 P
   0.4316769999999999    0.3320120000000000    0.9721040000000001 P
   0.2778960000000000    0.9857929999999999    0.8183230000000001 P
   0.9179880000000001    0.8183229999999999    0.9857930000000003 P
   0.8939490000000000    0.3301929999999998    0.5331080000000002 P
   0.2427500000000000    0.5331080000000000    0.3301930000000000 P
   0.9198070000000002    0.3560510000000000    0.0072500000000000 P
   0.7168920000000000    0.0072499999999999    0.3560510000000001 P
