Tm2 Ge4
1.0
   2.0225160000000000   -7.8872749999999998    0.0000000000000000
   2.0225160000000000    7.8872749999999998    0.0000000000000000
   0.0000000000000000    0.0000000000000000    3.9001850000000000
Tm Ge
2 4
direct
   0.1028860000000000    0.8971140000000000    0.2500000000000000 Tm
   0.8971140000000000    0.1028860000000000    0.7499999999999999 Tm
   0.4458670000000000    0.5541330000000000    0.2500000000000000 Ge
   0.5541330000000000    0.4458670000000000    0.7499999999999999 Ge
   0.2535529999999999    0.7464470000000001    0.7499999999999999 Ge
   0.7464470000000000    0.2535530000000000    0.2500000000000000 Ge
