Ce1 Pr3
1.0
   5.2139290000000003    0.0000000000000000    0.0000000000000000
   0.0000000000000000    5.2139290000000003    0.0000000000000000
   0.0000000000000000    0.0000000000000000    5.2139290000000003
Ce Pr
1 3
direct
   0.0000000000000000    0.0000000000000000    0.0000000000000000 Ce
   0.0000000000000000    0.5000000000000000    0.5000000000000000 Pr
   0.5000000000000000    0.0000000000000000    0.5000000000000000 Pr
   0.5000000000000000    0.5000000000000000    0.0000000000000000 Pr
