Ti3 Nb1
1.0
   1.6207220000000000   -2.4046509999999999    0.0000000000000000
   1.6207220000000000    2.4046509999999999    0.0000000000000000
   0.0000000000000000    0.0000000000000000    9.0691299999999995
Ti Nb
3 1
direct
   0.1915559999999998    0.8084440000000002    0.0000000000000000 Ti
   0.7999560000000000    0.2000440000000000    0.7519780000000000 Ti
   0.7999560000000000    0.2000440000000000    0.2480220000000000 Ti
   0.2085329999999999    0.7914670000000001    0.4999999999999999 Nb
