Mg5 Zn1
1.0
   2.6737109999999999   -4.6310029999999998    0.0000000000000000
   2.6737109999999999    4.6310029999999998    0.0000000000000000
   0.0000000000000000    0.0000000000000000    5.1348430000000000
Mg Zn
5 1
direct
   0.0000000000000000    0.6720180000000000    0.4999999999999999 Mg
   0.6720180000000000    0.0000000000000000    0.4999999999999999 Mg
   0.3279820000000000    0.3279820000000000    0.4999999999999999 Mg
   0.6666670000000000    0.3333330000000000    0.0000000000000000 Mg
   0.3333330000000000    0.6666670000000000    0.0000000000000000 Mg
   0.0000000000000000    0.0000000000000000    0.0000000000000000 Zn
