Mg8 Si6
1.0
   6.2570480000000002    0.0000000000000000    0.0000000000000000
  -0.1607840000000000    7.2234809999999996    0.0000000000000000
  -2.5697220000000001   -2.8438289999999999    6.1440159999999997
Mg Si
8 6
direct
   0.4934080000000000    0.3821860000000000    0.6103320000000000 Mg
   0.4430930000000000    0.8350270000000000    0.8909940000000001 Mg
   0.8019730000000000    0.5933329999999999    0.1114100000000000 Mg
   0.1690440000000000    0.4509609999999999    0.8499700000000000 Mg
   0.1561980000000000    0.9626700000000000    0.5236700000000001 Mg
   0.7422940000000001    0.2598850000000000    0.3165490000000001 Mg
   0.8338920000000000    0.7469010000000000    0.6797410000000002 Mg
   0.0663920000000000    0.1959390000000000    0.0671360000000000 Mg
   0.5648460000000001    0.1919950000000000    0.8741390000000001 Si
   0.7856830000000000    0.1117840000000000    0.6344190000000001 Si
   0.1293080000000000    0.8576549999999999    0.1160370000000000 Si
   0.4087440000000001    0.5198410000000000    0.3018000000000001 Si
   0.5281760000000000    0.8349899999999999    0.2910110000000000 Si
   0.1270520000000000    0.5567520000000000    0.4828310000000001 Si
