Ho5 Al15
1.0
  12.1205730000000003   -3.0401739999999999    0.0000000000000000
  12.1205730000000003    3.0401739999999999    0.0000000000000000
  11.3580140000000007    0.0000000000000000    5.2102279999999999
Ho Al
5 15
direct
   0.5999400000000000    0.5999399999999999    0.5999400000000000 Ho
   0.4000600000000000    0.4000599999999999    0.4000600000000001 Ho
   0.8690140000000002    0.8690140000000001    0.8690139999999998 Ho
   0.1309860000000000    0.1309859999999999    0.1309860000000000 Ho
   0.0000000000000000    0.0000000000000000    0.0000000000000000 Ho
   0.5664850000000000    0.1174139999999999    0.1174140000000000 Al
   0.1174139999999999    0.5664849999999999    0.1174140000000000 Al
   0.1174140000000001    0.1174140000000000    0.5664850000000000 Al
   0.4335150000000000    0.8825859999999999    0.8825860000000001 Al
   0.8825860000000000    0.4335149999999999    0.8825860000000001 Al
   0.5000000000000000    0.5000000000000000    0.0000000000000000 Al
   0.5000000000000000   -0.0000000000000001    0.5000000000000000 Al
   0.0000000000000000    0.4999999999999999    0.5000000000000000 Al
   0.6352280000000001    0.6352280000000001    0.1309200000000000 Al
   0.6352280000000000    0.1309199999999999    0.6352280000000000 Al
   0.1309200000000000    0.6352279999999999    0.6352280000000000 Al
   0.3647720000000000    0.3647719999999998    0.8690800000000000 Al
   0.3647720000000000    0.8690800000000000    0.3647720000000000 Al
   0.8690800000000000    0.3647720000000000    0.3647720000000000 Al
   0.8825860000000001    0.8825860000000000    0.4335150000000000 Al
