Ca2 Sm6
1.0
   3.7063489999999999   -6.4195849999999997    0.0000000000000000
   3.7063489999999999    6.4195849999999997    0.0000000000000000
   0.0000000000000000    0.0000000000000000    5.9384990000000002
Ca Sm
2 6
direct
   0.3333330000000000    0.6666670000000000    0.7500000000000001 Ca
   0.6666670000000000    0.3333330000000000    0.2500000000000000 Ca
   0.1644910000000000    0.3289820000000000    0.2500000000000000 Sm
   0.6710180000000000    0.8355089999999998    0.2500000000000000 Sm
   0.1644910000000000    0.8355089999999998    0.2500000000000000 Sm
   0.8355089999999997    0.6710179999999999    0.7500000000000001 Sm
   0.3289820000000000    0.1644910000000000    0.7500000000000001 Sm
   0.8355089999999998    0.1644909999999999    0.7500000000000001 Sm
