Y1 Mg5
1.0
   5.7367039999999996   -2.8056570000000001    0.0000000000000000
   5.7367039999999996    2.8056570000000001    0.0000000000000000
   4.3645379999999996    0.0000000000000000    4.6617910000000000
Y Mg
1 5
direct
   0.5000000000000000    0.5000000000000000    0.5000000000000000 Y
  -0.0000000000000000    0.6675580000000000    0.3324420000000000 Mg
   0.1659040000000000    0.1659040000000000    0.1659040000000000 Mg
   0.3324420000000001    0.0000000000000000    0.6675580000000000 Mg
   0.6675580000000000    0.3324420000000000    0.0000000000000000 Mg
   0.8340959999999999    0.8340959999999999    0.8340960000000001 Mg
