Gd2 S4
1.0
   3.8944160000000001    0.0000000000000000    0.0000000000000000
   0.0000000000000000    3.8944160000000001    0.0000000000000000
   0.0000000000000000    0.0000000000000000    8.0367929999999994
Gd S
2 4
direct
   0.0000000000000000    0.5000000000000000    0.7260190000000000 Gd
   0.5000000000000000    0.0000000000000000    0.2739810000000000 Gd
   0.0000000000000000    0.0000000000000000    0.0000000000000000 S
   0.5000000000000000    0.5000000000000000    0.0000000000000000 S
   0.0000000000000000    0.5000000000000000    0.3666970000000001 S
   0.5000000000000000    0.0000000000000000    0.6333029999999999 S
