Pb4 S4
1.0
   5.5735989999999997   -5.6898179999999998    0.0000000000000000
   5.5735989999999997    5.6898179999999998    0.0000000000000000
   0.0000000000000000    0.0000000000000000    4.0699280000000000
Pb S
4 4
direct
   0.6631119999999999    0.3391489999999998    0.0000000000000000 Pb
   0.3391489999999999    0.6631119999999998    0.0000000000000000 Pb
   0.1373870000000000    0.1373870000000000    0.5000000000000000 Pb
   0.8237310000000000    0.8237309999999999    0.0000000000000000 Pb
   0.7748220000000000    0.1178520000000000    0.5000000000000000 S
   0.1178520000000001    0.7748219999999999    0.5000000000000000 S
   0.3108960000000000    0.3108960000000000    0.0000000000000000 S
   0.6372510000000000    0.6372509999999999    0.5000000000000000 S
