Cr1 Fe4
1.0
  -1.4254249999999999   -1.4121830000000000    1.4121830000000000
  -1.4254249999999999    1.4121830000000000   -1.4121830000000000
  -1.4254249999999999   -7.1104070000000004   -7.1104070000000004
Cr Fe
1 4
direct
   0.0000000000000000    0.0000000000000000    0.0000000000000000 Cr
   0.4003639999999999    0.4003640000000001    0.1992720000000000 Fe
   0.8002359999999997    0.8002359999999999    0.3995270000000001 Fe
   0.1997640000000002    0.1997639999999999    0.6004730000000000 Fe
   0.5996359999999998    0.5996359999999997    0.8007280000000000 Fe
