Mg6 Pt2
1.0
   2.3125040000000001   -4.0053749999999999    0.0000000000000000
   2.3125040000000001    4.0053749999999999    0.0000000000000000
   0.0000000000000000    0.0000000000000000    8.3480080000000001
Mg Pt
6 2
direct
   0.6666670000000000    0.3333330000000000    0.4228590000000000 Mg
   0.3333330000000000    0.6666670000000000    0.9228589999999999 Mg
   0.6666670000000000    0.3333330000000000    0.0771410000000000 Mg
   0.0000000000000000    0.0000000000000000    0.7500000000000000 Mg
   0.0000000000000000    0.0000000000000000    0.2500000000000000 Mg
   0.3333330000000000    0.6666670000000000    0.5771410000000000 Mg
   0.6666670000000000    0.3333330000000000    0.7500000000000000 Pt
   0.3333330000000000    0.6666670000000000    0.2500000000000000 Pt
