Ba2 Cu26
1.0
   0.0000000000000000    5.8567280000000004    5.8567280000000004
   5.8567280000000004    0.0000000000000000    5.8567280000000004
   5.8567280000000004    5.8567280000000004    0.0000000000000000
Ba Cu
2 26
direct
   0.2500000000000000    0.2500000000000000    0.2500000000000000 Ba
   0.7500000000000000    0.7500000000000000    0.7500000000000000 Ba
   0.0000000000000000    0.0000000000000000    0.0000000000000000 Cu
   0.5000000000000000    0.5000000000000000    0.5000000000000000 Cu
   0.9353860000000001    0.7057580000000000    0.2942419999999999 Cu
   0.4353860000000000    0.2057580000000001    0.5646139999999999 Cu
   0.2057579999999999    0.4353860000000001    0.7942420000000001 Cu
   0.7942420000000001    0.2057579999999999    0.4353860000000001 Cu
   0.4353860000000001    0.5646139999999999    0.7942420000000001 Cu
   0.2057580000000000    0.5646139999999999    0.4353860000000001 Cu
   0.7942420000000000    0.4353860000000001    0.5646139999999998 Cu
   0.2942420000000000    0.9353860000000002    0.7057580000000000 Cu
   0.7057580000000000    0.2942420000000001    0.9353860000000001 Cu
   0.9353860000000001    0.0646140000000001    0.7057580000000000 Cu
   0.9353860000000002    0.2942420000000000    0.0646140000000000 Cu
   0.7057580000000000    0.0646140000000000    0.2942420000000000 Cu
   0.0646140000000000    0.9353860000000002    0.2942420000000001 Cu
   0.0646140000000000    0.7057580000000000    0.9353860000000001 Cu
   0.2942420000000000    0.7057580000000000    0.0646140000000001 Cu
   0.5646139999999999    0.4353860000000000    0.2057580000000000 Cu
   0.5646139999999999    0.7942420000000001    0.4353860000000002 Cu
   0.4353860000000001    0.7942420000000000    0.2057580000000000 Cu
   0.5646139999999999    0.2057580000000000    0.7942419999999999 Cu
   0.7942420000000000    0.5646140000000001    0.2057580000000001 Cu
   0.2057580000000000    0.7942420000000000    0.5646139999999999 Cu
   0.7057579999999999    0.9353860000000002    0.0646140000000001 Cu
   0.2942419999999999    0.0646140000000001    0.9353860000000002 Cu
   0.0646140000000000    0.2942420000000000    0.7057580000000000 Cu
