Si48 O96
1.0
  15.4852019999999992    0.0000000000000000    0.0000000000000000
   0.0000000000000000   15.4852019999999992    0.0000000000000000
   0.0000000000000000    0.0000000000000000   12.0093470000000000
Si O
48 96
direct
   0.5921080000000000    0.2334410000000000    0.8131029999999999 Si
   0.4078920000000000    0.7665590000000000    0.8131029999999999 Si
   0.0921080000000000    0.2665589999999999    0.8131029999999999 Si
   0.9078920000000000    0.7334410000000000    0.8131029999999999 Si
   0.7665590000000000    0.5921080000000000    0.8131029999999999 Si
   0.2334410000000000    0.4078920000000000    0.8131029999999999 Si
   0.7334410000000000    0.0921080000000000    0.8131029999999999 Si
   0.2665589999999999    0.9078920000000000    0.8131029999999999 Si
   0.4078920000000000    0.7665590000000000    0.1868970000000000 Si
   0.5921080000000000    0.2334410000000000    0.1868970000000000 Si
   0.9078920000000000    0.7334410000000000    0.1868970000000000 Si
   0.0921080000000000    0.2665589999999999    0.1868970000000000 Si
   0.2334410000000000    0.4078920000000000    0.1868970000000000 Si
   0.7665590000000000    0.5921080000000000    0.1868970000000000 Si
   0.2665589999999999    0.9078920000000000    0.1868970000000000 Si
   0.7334410000000000    0.0921080000000000    0.1868970000000000 Si
   0.5310480000000000    0.8213080000000000    0.0000000000000000 Si
   0.4689520000000000    0.1786920000000000    0.0000000000000000 Si
   0.0310480000000000    0.6786920000000000    0.0000000000000000 Si
   0.9689520000000000    0.3213080000000000    0.0000000000000000 Si
   0.1786920000000000    0.5310480000000000    0.0000000000000000 Si
   0.8213080000000000    0.4689520000000000    0.0000000000000000 Si
   0.3213080000000000    0.0310480000000000    0.0000000000000000 Si
   0.6786920000000000    0.9689520000000000    0.0000000000000000 Si
   0.6711120000000000    0.6822580000000000    0.0000000000000000 Si
   0.3288880000000000    0.3177420000000000    0.0000000000000000 Si
   0.1711120000000000    0.8177419999999999    0.0000000000000000 Si
   0.8288879999999998    0.1822580000000000    0.0000000000000000 Si
   0.3177420000000000    0.6711120000000000    0.0000000000000000 Si
   0.6822580000000000    0.3288880000000000    0.0000000000000000 Si
   0.1822580000000000    0.1711120000000000    0.0000000000000000 Si
   0.8177419999999999    0.8288879999999998    0.0000000000000000 Si
   0.5276020000000000    0.3594660000000000    0.6301500000000000 Si
   0.4723980000000000    0.6405340000000000    0.6301500000000000 Si
   0.0276020000000000    0.1405340000000000    0.6301500000000000 Si
   0.9723979999999999    0.8594660000000000    0.6301500000000000 Si
   0.6405340000000000    0.5276020000000000    0.6301500000000000 Si
   0.3594660000000000    0.4723980000000000    0.6301500000000000 Si
   0.8594660000000000    0.0276020000000000    0.6301500000000000 Si
   0.1405340000000000    0.9723979999999999    0.6301500000000000 Si
   0.4723980000000000    0.6405340000000000    0.3698500000000000 Si
   0.5276020000000000    0.3594660000000000    0.3698500000000000 Si
   0.9723979999999999    0.8594660000000000    0.3698500000000000 Si
   0.0276020000000000    0.1405340000000000    0.3698500000000000 Si
   0.3594660000000000    0.4723980000000000    0.3698500000000000 Si
   0.6405340000000000    0.5276020000000000    0.3698500000000000 Si
   0.1405340000000000    0.9723979999999999    0.3698500000000000 Si
   0.8594660000000000    0.0276020000000000    0.3698500000000000 Si
   0.6248679999999999    0.3155820000000000    0.8878870000000000 O
   0.3751320000000000    0.6844180000000000    0.8878870000000000 O
   0.1248680000000000    0.1844180000000000    0.8878870000000000 O
   0.8751320000000000    0.8155820000000000    0.8878870000000000 O
   0.6844180000000000    0.6248679999999999    0.8878870000000000 O
   0.3155820000000000    0.3751320000000000    0.8878870000000000 O
   0.8155820000000000    0.1248680000000000    0.8878870000000000 O
   0.1844180000000000    0.8751320000000000    0.8878870000000000 O
   0.3751320000000000    0.6844180000000000    0.1121130000000000 O
   0.6248679999999999    0.3155820000000000    0.1121130000000000 O
   0.8751320000000000    0.8155820000000000    0.1121130000000000 O
   0.1248680000000000    0.1844180000000000    0.1121130000000000 O
   0.3155820000000000    0.3751320000000000    0.1121130000000000 O
   0.6844180000000000    0.6248679999999999    0.1121130000000000 O
   0.1844180000000000    0.8751320000000000    0.1121130000000000 O
   0.8155820000000000    0.1248680000000000    0.1121130000000000 O
   0.5432940000000001    0.2738140000000000    0.7054009999999998 O
   0.4567059999999999    0.7261860000000000    0.7054009999999998 O
   0.0432940000000000    0.2261860000000000    0.7054009999999998 O
   0.9567059999999999    0.7738140000000000    0.7054009999999998 O
   0.7261860000000000    0.5432940000000001    0.7054009999999998 O
   0.2738140000000000    0.4567059999999999    0.7054009999999998 O
   0.7738140000000000    0.0432940000000000    0.7054009999999998 O
   0.2261860000000000    0.9567059999999999    0.7054009999999998 O
   0.4567059999999999    0.7261860000000000    0.2945989999999999 O
   0.5432940000000001    0.2738140000000000    0.2945989999999999 O
   0.9567059999999999    0.7738140000000000    0.2945989999999999 O
   0.0432940000000000    0.2261860000000000    0.2945989999999999 O
   0.2738140000000000    0.4567059999999999    0.2945989999999999 O
   0.7261860000000000    0.5432940000000001    0.2945989999999999 O
   0.2261860000000000    0.9567059999999999    0.2945989999999999 O
   0.7738140000000000    0.0432940000000000    0.2945989999999999 O
   0.6723400000000000    0.1723400000000000    0.7726099999999999 O
   0.3276600000000000    0.8276600000000000    0.7726099999999999 O
   0.1723400000000000    0.3276600000000000    0.7726099999999999 O
   0.8276600000000000    0.6723400000000000    0.7726099999999999 O
   0.3276600000000000    0.8276600000000000    0.2273900000000000 O
   0.6723400000000000    0.1723400000000000    0.2273900000000000 O
   0.8276600000000000    0.6723400000000000    0.2273900000000000 O
   0.1723400000000000    0.3276600000000000    0.2273900000000000 O
   0.5273080000000000    0.1730370000000000    0.8872450000000000 O
   0.4726920000000000    0.8269630000000000    0.8872450000000000 O
   0.0273080000000000    0.3269630000000000    0.8872450000000000 O
   0.9726920000000000    0.6730369999999999    0.8872450000000000 O
   0.8269630000000000    0.5273080000000000    0.8872450000000000 O
   0.1730370000000000    0.4726920000000000    0.8872450000000000 O
   0.6730369999999999    0.0273080000000000    0.8872450000000000 O
   0.3269630000000000    0.9726920000000000    0.8872450000000000 O
   0.4726920000000000    0.8269630000000000    0.1127550000000000 O
   0.5273080000000000    0.1730370000000000    0.1127550000000000 O
   0.9726920000000000    0.6730369999999999    0.1127550000000000 O
   0.0273080000000000    0.3269630000000000    0.1127550000000000 O
   0.1730370000000000    0.4726920000000000    0.1127550000000000 O
   0.8269630000000000    0.5273080000000000    0.1127550000000000 O
   0.3269630000000000    0.9726920000000000    0.1127550000000000 O
   0.6730369999999999    0.0273080000000000    0.1127550000000000 O
   0.5767409999999999    0.7262380000000001    0.0000000000000000 O
   0.4232589999999999    0.2737620000000000    0.0000000000000000 O
   0.0767410000000000    0.7737619999999999    0.0000000000000000 O
   0.9232590000000001    0.2262380000000000    0.0000000000000000 O
   0.2737620000000000    0.5767409999999999    0.0000000000000000 O
   0.7262380000000001    0.4232589999999999    0.0000000000000000 O
   0.2262380000000000    0.0767410000000000    0.0000000000000000 O
   0.7737619999999999    0.9232590000000001    0.0000000000000000 O
   0.5990220000000001    0.9009779999999999    0.0000000000000000 O
   0.4009780000000000    0.0990220000000000    0.0000000000000000 O
   0.0990220000000000    0.5990220000000001    0.0000000000000000 O
   0.9009779999999999    0.4009780000000000    0.0000000000000000 O
   0.7429000000000000    0.7570999999999999    0.0000000000000000 O
   0.2571000000000000    0.2429000000000000    0.0000000000000000 O
   0.2429000000000000    0.7429000000000000    0.0000000000000000 O
   0.7570999999999999    0.2571000000000000    0.0000000000000000 O
   0.6013200000000000    0.4319749999999999    0.6567840000000000 O
   0.3986799999999999    0.5680250000000000    0.6567840000000000 O
   0.1013200000000000    0.0680250000000000    0.6567840000000000 O
   0.8986800000000000    0.9319750000000000    0.6567840000000000 O
   0.5680250000000000    0.6013200000000000    0.6567840000000000 O
   0.4319749999999999    0.3986799999999999    0.6567840000000000 O
   0.9319750000000000    0.1013200000000000    0.6567840000000000 O
   0.0680250000000000    0.8986800000000000    0.6567840000000000 O
   0.3986799999999999    0.5680250000000000    0.3432160000000000 O
   0.6013200000000000    0.4319749999999999    0.3432160000000000 O
   0.8986800000000000    0.9319750000000000    0.3432160000000000 O
   0.1013200000000000    0.0680250000000000    0.3432160000000000 O
   0.4319749999999999    0.3986799999999999    0.3432160000000000 O
   0.5680250000000000    0.6013200000000000    0.3432160000000000 O
   0.0680250000000000    0.8986800000000000    0.3432160000000000 O
   0.9319750000000000    0.1013200000000000    0.3432160000000000 O
   0.5328789999999999    0.3306770000000000    0.4999999999999999 O
   0.4671210000000000    0.6693230000000000    0.4999999999999999 O
   0.0328790000000000    0.1693230000000000    0.4999999999999999 O
   0.9671210000000000    0.8306770000000000    0.4999999999999999 O
   0.6693230000000000    0.5328789999999999    0.4999999999999999 O
   0.3306770000000000    0.4671210000000000    0.4999999999999999 O
   0.8306770000000000    0.0328790000000000    0.4999999999999999 O
   0.1693230000000000    0.9671210000000000    0.4999999999999999 O
