Zn20 Pd6
1.0
   6.5181410000000000    4.5532380000000003    0.0000000000000000
  -6.5181410000000000    4.5532380000000003    0.0000000000000000
   0.0000000000000000    4.3384179999999999    6.5012280000000002
Zn Pd
20 6
direct
   0.0062500000000000    0.0062499999999999    0.7816080000000001 Zn
   0.7749750000000000    0.7749750000000001    0.2221670000000000 Zn
   0.2203469999999999    0.0013280000000000    0.9937760000000001 Zn
   0.0013279999999999    0.2203469999999999    0.9937760000000001 Zn
   0.2677730000000000    0.2677730000000000    0.3912470000000000 Zn
   0.0082199999999999    0.7313569999999999    0.6493010000000000 Zn
   0.7313569999999999    0.0082199999999999    0.6493010000000000 Zn
   0.6566569999999998    0.6566569999999999    0.6277670000000000 Zn
   0.3735779999999999    0.6424729999999998    0.3519880000000001 Zn
   0.6424729999999998    0.3735780000000000    0.3519880000000001 Zn
   0.3503649999999999    0.7326280000000001    0.9845800000000001 Zn
   0.6164839999999999    0.2600180000000000    0.7297100000000001 Zn
   0.3516020000000000    0.0061550000000000    0.2775920000000001 Zn
   0.7326279999999999    0.3503650000000000    0.9845800000000001 Zn
   0.0061550000000000    0.3516020000000000    0.2775920000000001 Zn
   0.2600180000000000    0.6164839999999999    0.7297100000000001 Zn
   0.6450129999999999    0.6450130000000001    0.9932920000000000 Zn
   0.0022300000000000    0.6513789999999999    0.3514580000000000 Zn
   0.6513789999999999    0.0022300000000000    0.3514580000000000 Zn
   0.3562850000000000    0.3562850000000001    0.0067500000000000 Zn
   0.9972899999999999    0.3639510000000000    0.6336290000000000 Pd
   0.3639509999999999    0.9972899999999999    0.6336290000000000 Pd
   0.9994549999999998    0.9994550000000000    0.3441850000000001 Pd
   0.3572509999999999    0.3572509999999999    0.6588710000000001 Pd
   0.6410909999999999    0.9858439999999999    0.0150230000000000 Pd
   0.9858439999999999    0.6410910000000000    0.0150230000000000 Pd
