Zn1 Si3
1.0
  -1.8991750000000001    1.8991750000000001    4.2362180000000000
   1.8991750000000001   -1.8991750000000001    4.2362180000000000
   1.8991750000000001    1.8991750000000001   -4.2362180000000000
Zn Si
1 3
direct
   0.0000000000000000    0.0000000000000000    0.0000000000000000 Zn
   0.7500000000000000    0.2500000000000001    0.4999999999999999 Si
   0.2500000000000001    0.7500000000000001    0.4999999999999999 Si
   0.5000000000000001    0.5000000000000001    0.0000000000000000 Si
