Mg3 Zn3
1.0
   1.5835740000000000   -2.7428309999999998    0.0000000000000000
   1.5835740000000000    2.7428309999999998    0.0000000000000000
   0.0000000000000000    0.0000000000000000   13.1776210000000003
Mg Zn
3 3
direct
   0.0000000000000000    0.0000000000000000    0.0086170000000000 Mg
   0.0000000000000000    0.0000000000000000    0.6766489999999999 Mg
   0.3333330000000000    0.6666670000000000    0.4826540000000000 Mg
   0.3333330000000000    0.6666670000000000    0.8429680000000001 Zn
   0.0000000000000000    0.0000000000000000    0.3166840000000000 Zn
   0.3333330000000000    0.6666670000000000    0.1724280000000000 Zn
