Al40 O60
1.0
  10.7089025800000002   -0.0168973000000000   -0.0510871200000000
  -0.0179113600000000   10.4462693499999997    0.2567729100000000
  -0.0637522600000000    0.2455177600000000    9.8235050299999997
Al O
40 60
direct
   0.7873309800000001    0.3821900600000000    0.6255021900000000 Al
   0.7235944500000001    0.9548029199999999    0.3506751000000000 Al
   0.6663056700000001    0.6015672800000000    0.7823933500000000 Al
   0.2673431700000000    0.6409906399999999    0.4725028000000001 Al
   0.9210242700000002    0.4906254499999999    0.1721105900000000 Al
   0.2174293400000000    0.8969603300000000    0.5377001100000000 Al
   0.0429616100000000    0.8259000099999999    0.7853663600000000 Al
   0.0920692800000000    0.2054495900000000    0.4070094800000000 Al
   0.6295674800000001    0.1502027600000000    0.0904173400000000 Al
   0.8728132800000001    0.2738346200000000    0.9381976000000001 Al
   0.5080286000000002    0.5823141500000000    0.5586252800000000 Al
   0.1994383300000000    0.5920781399999999    0.7503571300000000 Al
   0.5816085800000000    0.2078137000000000    0.4473012200000000 Al
   0.7839312800000001    0.6845112200000000    0.5054617600000000 Al
   0.2800015500000000    0.9961465799999999    0.8597669600000000 Al
   0.7604603700000000    0.8464252200000000    0.8086171000000000 Al
   0.3098062600000001    0.1668518300000000    0.1062879000000000 Al
   0.6221491099999999    0.8753514100000001    0.0828260800000000 Al
   0.3461319500000001    0.1242205700000000    0.6149122700000000 Al
   0.4285966800000000    0.0092457100000000    0.2847747100000000 Al
   0.5413618000000000    0.0016484000000000    0.8038410799999999 Al
   0.1844186900000000    0.6803803400000000    0.0154027800000000 Al
   0.7079267600000002    0.6130981300000000    0.0825781100000000 Al
   0.9865134800000001    0.9156036099999999    0.4471702500000000 Al
   0.1911512300000000    0.8578917100000000    0.2165853200000000 Al
   0.3713526300000001    0.3730016200000000    0.4247170600000000 Al
   0.1135961300000000    0.3769142500000000    0.9830825800000000 Al
   0.6011160300000001    0.3784293600000000    0.8815300300000000 Al
   0.9889927700000001    0.0468543000000000    0.8878934199999999 Al
   0.8093444299999999    0.0887917100000000    0.6225891000000000 Al
   0.9186646800000000    0.7922097900000000    0.2041109300000000 Al
   0.6330314700000000    0.4930642700000001    0.3116704600000000 Al
   0.5175937000000002    0.8694995499999999    0.5024211400000000 Al
   0.3171382000000000    0.2940700300000000    0.8193472700000000 Al
   0.4038913400000000    0.7630447699999999    0.7756723999999999 Al
   0.4310953000000001    0.7018788800000001    0.2437802300000000 Al
   0.1897752700000000    0.4399148100000000    0.2355378700000000 Al
   0.0525211300000000    0.2512429100000000    0.7107016400000000 Al
   0.9056819500000002    0.1014387400000000    0.1969982600000000 Al
   0.0193126800000000    0.4756654200000000    0.4887753700000000 Al
   0.9773060400000002    0.9520806199999999    0.2558616000000000 O
   0.2218360900000001    0.3080747200000000    0.1137305900000000 O
   0.6073974000000000    0.0196715500000000    0.9830483400000000 O
   0.1198738200000000    0.0404382700000000    0.4569686200000000 O
   0.4722213700000001    0.1517821000000000    0.1712491900000000 O
   0.0202623700000000    0.3059397700000000    0.5364190300000000 O
   0.3067127200000000    0.6591623500000000    0.8836425000000000 O
   0.1894691600000000    0.7905872899999999    0.3902252900000001 O
   0.6989320200000000    0.2675217200000000    0.9739077400000000 O
   0.0538209100000000    0.8512296499999997    0.6083750999999999 O
   0.2710735600000000    0.9841226400000000    0.6804499200000000 O
   0.2290034000000000    0.2317906200000000    0.6766524000000000 O
   0.9894570700000003    0.2196102800000000    0.2699834400000000 O
   0.5037630100000000    0.8693796200000001    0.2135957600000000 O
   0.5168064100000002    0.6412570399999999    0.7233969099999999 O
   0.7087791800000001    0.9994172999999998    0.7379140500000000 O
   0.5812719900000001    0.0383063700000000    0.4074883600000000 O
   0.9477974200000002    0.3926962499999999    0.0324245900000000 O
   0.9082565000000000    0.8872246199999999    0.8622655500000000 O
   0.2854756700000000    0.7317675899999999    0.6357275499999999 O
   0.2209091800000000    0.3154031099999999    0.3723724000000000 O
   0.8845684600000001    0.3298330800000000    0.7622445999999999 O
   0.2997740800000000    0.7467523800000000    0.1419847900000000 O
   0.9553678000000000    0.1019861500000000    0.7107384100000000 O
   0.8668745300000003    0.5166532200000000    0.5411753000000000 O
   0.2991636300000000    0.1460812100000000    0.9318482399999999 O
   0.0809114400000000    0.6726085100000000    0.8463974199999998 O
   0.1423797600000000    0.5244734500000000    0.0787497600000000 O
   0.4407583100000000    0.7073603499999999    0.4356757999999999 O
   0.1925558200000000    0.4236541099999999    0.8246754699999999 O
   0.7374667500000001    0.1101223200000000    0.2280292000000000 O
   0.3835317000000000    0.4771565600000000    0.5611966600000000 O
   0.5690449600000000    0.6167875900000001    0.1923791000000000 O
   0.0339311900000000    0.4869199699999999    0.3083115500000000 O
   0.8431177800000000    0.0051731300000000    0.4744124500000000 O
   0.8906191200000001    0.1086923600000000    0.0148603900000000 O
   0.0596485800000000    0.2239695100000000    0.8961065000000000 O
   0.6513346100000001    0.5677105600000000    0.4690536900000000 O
   0.3138490000000001    0.5361228300000001    0.3158149400000000 O
   0.9058030100000000    0.7563107699999999    0.3968282800000000 O
   0.7588446300000001    0.4621424599999999    0.2114104400000000 O
   0.7233111900000002    0.2335093299999999    0.5520052100000000 O
   0.0734135000000000    0.7826027299999999    0.1183150200000000 O
   0.5406656200000000    0.3604418900000000    0.3553255200000000 O
   0.7718965500000000    0.7105123500000000    0.6996400500000000 O
   0.4683638400000000    0.1406172000000000    0.7363477500000000 O
   0.6562872000000001    0.4398235200000000    0.7136855200000000 O
   0.7548527700000000    0.8640169499999999    0.1942525000000000 O
   0.6701191600000000    0.5227565299999999    0.9435166199999999 O
   0.6718388900000001    0.8175119900000000    0.4600960100000000 O
   0.5130596700000001    0.8764769300000000    0.6797442500000000 O
   0.6715799300000002    0.7684963199999999    0.9523964599999999 O
   0.1418567100000000    0.5568669900000000    0.5692272200000000 O
   0.4451946200000000    0.3611127100000000    0.8961526500000000 O
   0.4182338500000001    0.2106318600000000    0.4810922000000000 O
   0.8675059800000002    0.6510450199999999    0.1183644600000000 O
   0.4114377100000000    0.8980486700000000    0.8943399099999999 O
   0.1259416700000000    0.9452566599999999    0.8895472899999999 O
   0.2722260500000000    0.0148851500000000    0.1964714500000000 O
   0.3717607000000000    0.9516373700000000    0.4506823400000000 O
