H8 O4
1.0
   2.0436390000000002   -4.5671109999999997    0.0000000000000000
   2.0436390000000002    4.5671109999999997    0.0000000000000000
   0.0000000000000000    0.0000000000000000    5.5022929999999999
H O
8 4
direct
   0.0302010000000000    0.4339960000000000    0.5691389999999998 H
   0.5660040000000000    0.9697990000000001    0.5691389999999998 H
   0.3225530000000000    0.6774470000000000    0.8981640000000000 H
   0.5498880000000002    0.4501120000000001    0.9766029999999999 H
   0.4501120000000001    0.5498880000000002    0.4766029999999999 H
   0.6774470000000000    0.3225530000000000    0.3981640000000000 H
   0.4339960000000000    0.0302010000000000    0.0691390000000000 H
   0.9697990000000001    0.5660040000000000    0.0691390000000000 H
   0.2700680000000000    0.7299320000000000    0.0559350000000000 O
   0.3735100000000000    0.6264900000000000    0.6010189999999999 O
   0.7299320000000000    0.2700680000000000    0.5559350000000000 O
   0.6264900000000000    0.3735100000000000    0.1010190000000000 O
