Ta3 Co9
1.0
   6.4270199999999997   -2.5814170000000001    0.0000000000000000
   6.4270199999999997    2.5814170000000001    0.0000000000000000
   5.3901919999999999    0.0000000000000000    4.3492680000000004
Ta Co
3 9
direct
   0.0000000000000000    0.0000000000000000    0.0000000000000000 Ta
   0.2184310000000000    0.2184310000000000    0.2184310000000000 Ta
   0.7815690000000002    0.7815690000000000    0.7815690000000000 Ta
   0.5000000000000001    0.4999999999999999    0.0000000000000000 Co
   0.5000000000000001   -0.0000000000000000    0.5000000000000000 Co
   0.0000000000000001    0.5000000000000000    0.5000000000000000 Co
   0.2418820000000000    0.7139409999999999    0.7139410000000000 Co
   0.7139410000000002    0.7139410000000000    0.2418820000000000 Co
   0.7139409999999999    0.2418820000000000    0.7139410000000000 Co
   0.2860590000000000    0.7581179999999998    0.2860590000000000 Co
   0.7581179999999998    0.2860589999999999    0.2860590000000000 Co
   0.2860590000000001    0.2860590000000000    0.7581180000000000 Co
