Nd6 Y2
1.0
   3.6898000000000000   -6.3909209999999996    0.0000000000000000
   3.6898000000000000    6.3909209999999996    0.0000000000000000
   0.0000000000000000    0.0000000000000000    5.9936949999999998
Nd Y
6 2
direct
   0.1673020000000000    0.3346030000000000    0.2500000000000000 Nd
   0.6653969999999997    0.8326980000000000    0.2500000000000000 Nd
   0.1673019999999999    0.8326980000000000    0.2500000000000000 Nd
   0.8326979999999998    0.6653969999999999    0.7500000000000000 Nd
   0.3346029999999999    0.1673020000000000    0.7500000000000000 Nd
   0.8326979999999999    0.1673020000000000    0.7500000000000000 Nd
   0.3333329999999999    0.6666670000000000    0.7500000000000000 Y
   0.6666669999999999    0.3333330000000000    0.2500000000000000 Y
