Ce2 O4
1.0
   1.9100330000000001   -3.3082739999999999    0.0000000000000000
   1.9100330000000001    3.3082739999999999    0.0000000000000000
   0.0000000000000000    0.0000000000000000    5.9981320000000000
Ce O
2 4
direct
   0.6666670000000000    0.3333329999999999    0.7500000000000000 Ce
   0.3333330000000000    0.6666669999999999    0.2500000000000000 Ce
   0.6666670000000000    0.3333329999999999    0.2500000000000000 O
   0.3333330000000000    0.6666669999999999    0.7500000000000000 O
   0.0000000000000000    0.0000000000000000    0.0000000000000000 O
   0.0000000000000000    0.0000000000000000    0.5000000000000000 O
