Ho2 O3
1.0
   1.8279170000000000   -3.1660450000000000    0.0000000000000000
   1.8279170000000000    3.1660450000000000    0.0000000000000000
   0.0000000000000000    0.0000000000000000    5.8585900000000004
Ho O
2 3
direct
   0.6666670000000000    0.3333330000000000    0.7499009999999999 Ho
   0.3333330000000000    0.6666670000000000    0.2500990000000000 Ho
   0.6666670000000000    0.3333330000000000    0.3544780000000000 O
   0.3333330000000000    0.6666670000000000    0.6455219999999999 O
   0.0000000000000000    0.0000000000000000    0.0000000000000000 O
