Fe23 B6
1.0
   0.0000000000000000    5.3038360000000004    5.3038360000000004
   5.3038360000000004    0.0000000000000000    5.3038360000000004
   5.3038360000000004    5.3038360000000004    0.0000000000000000
Fe B
23 6
direct
   0.0000000000000000    0.0000000000000000    0.0000000000000000 Fe
   0.7500000000000000    0.7500000000000000    0.7500000000000000 Fe
   0.2500000000000000    0.2500000000000000    0.2500000000000000 Fe
   0.6578960000000000    0.3421040000000000   -0.0000000000000000 Fe
   0.0000000000000000    0.3421040000000000    0.6578960000000000 Fe
   0.6578960000000000    0.0000000000000000   -0.0000000000000000 Fe
  -0.0000000000000000    0.0000000000000000    0.3421040000000000 Fe
   0.0000000000000000   -0.0000000000000000    0.6578960000000000 Fe
  -0.0000000000000000    0.3421040000000000    0.0000000000000000 Fe
   0.6578960000000000    0.0000000000000000    0.3421040000000000 Fe
   0.3421040000000000   -0.0000000000000000    0.0000000000000000 Fe
   0.0000000000000000    0.6578960000000000   -0.0000000000000000 Fe
   0.3421040000000000    0.0000000000000000    0.6578960000000000 Fe
   0.0000000000000000    0.6578960000000000    0.3421040000000000 Fe
   0.3421040000000000    0.6578960000000000   -0.0000000000000000 Fe
   0.6187540000000000    0.1437390000000000    0.6187540000000000 Fe
   0.3812460000000000    0.3812459999999999    0.8562609999999999 Fe
   0.8562610000000000    0.3812460000000000    0.3812459999999999 Fe
   0.3812460000000000    0.3812460000000000    0.3812460000000000 Fe
   0.1437390000000000    0.6187540000000000    0.6187540000000000 Fe
   0.6187540000000000    0.6187540000000000    0.6187540000000000 Fe
   0.6187540000000000    0.6187540000000000    0.1437390000000000 Fe
   0.3812460000000000    0.8562609999999999    0.3812459999999999 Fe
   0.2764480000000000    0.2764480000000000    0.7235520000000000 B
   0.2764480000000000    0.7235520000000000    0.7235520000000000 B
   0.7235520000000000    0.2764480000000000    0.2764480000000000 B
   0.2764480000000000    0.7235520000000000    0.2764480000000000 B
   0.7235520000000000    0.2764480000000001    0.7235520000000000 B
   0.7235520000000000    0.7235520000000000    0.2764480000000000 B
