Ga3 Pt2
1.0
   2.1452879999999999   -3.7157469999999999    0.0000000000000000
   2.1452879999999999    3.7157469999999999    0.0000000000000000
   0.0000000000000000    0.0000000000000000    5.3311210000000004
Ga Pt
3 2
direct
   0.0000000000000000    0.0000000000000000    0.0000000000000000 Ga
   0.3333330000000000    0.6666670000000000    0.6435670000000000 Ga
   0.6666670000000000    0.3333330000000000    0.3564330000000000 Ga
   0.3333330000000000    0.6666670000000000    0.1656510000000000 Pt
   0.6666670000000000    0.3333330000000000    0.8343490000000000 Pt
