V8 P4
1.0
   3.2736749999999999    0.0000000000000000    0.0000000000000000
   0.0000000000000000    6.1838800000000003    0.0000000000000000
   0.0000000000000000    0.0000000000000000    7.5675540000000003
V P
8 4
direct
   0.2500000000000000    0.8612689999999998    0.9411740000000001 V
   0.2500000000000000    0.3612690000000000    0.5588260000000000 V
   0.7500000000000000    0.1387310000000000    0.0588260000000000 V
   0.7500000000000000    0.6387310000000000    0.4411740000000000 V
   0.2500000000000000    0.9601280000000000    0.3335230000000001 V
   0.2500000000000000    0.4601280000000000    0.1664770000000000 V
   0.7500000000000000    0.0398720000000000    0.6664770000000001 V
   0.7500000000000000    0.5398719999999999    0.8335230000000000 V
   0.2500000000000000    0.2476960000000000    0.8578280000000001 P
   0.2500000000000000    0.7476959999999999    0.6421720000000000 P
   0.7500000000000000    0.7523040000000000    0.1421720000000000 P
   0.7500000000000000    0.2523040000000000    0.3578280000000000 P
