Hg3 Bi1
1.0
   4.7592730000000003    0.0000000000000000    0.0000000000000000
   0.0000000000000000    4.7592730000000003    0.0000000000000000
   0.0000000000000000    0.0000000000000000    4.7592730000000003
Hg Bi
3 1
direct
   0.5000000000000000    0.0000000000000000    0.0000000000000000 Hg
   0.0000000000000000    0.5000000000000000    0.0000000000000000 Hg
   0.0000000000000000    0.0000000000000000    0.5000000000000000 Hg
   0.5000000000000000    0.5000000000000000    0.5000000000000000 Bi
