Ce24 Se48
1.0
  18.1180778099999991    0.0000000000000000    0.0000000000000000
   0.0000000000000000   18.1180778099999991    0.0000000000000000
   0.0000000000000000    0.0000000000000000   18.1180778099999991
Ce Se
24 48
direct
   0.6374327400000001    0.2500000000000000    0.1374327400000000 Ce
   0.7500000000000000    0.8625672599999999    0.6374327400000001 Ce
   0.1374327400000000    0.3625672600000000    0.7500000000000000 Ce
   0.3625672600000000    0.7500000000000000    0.8625672599999999 Ce
   0.2500000000000000    0.1374327400000000    0.3625672600000000 Ce
   0.8625672599999999    0.6374327400000001    0.2500000000000000 Ce
   0.6374327400000001    0.7500000000000000    0.8625672599999999 Ce
   0.7500000000000000    0.1374327400000000    0.3625672600000000 Ce
   0.1374327400000000    0.6374327400000001    0.2500000000000000 Ce
   0.3625672600000000    0.2500000000000000    0.1374327400000000 Ce
   0.2500000000000000    0.8625672599999999    0.6374327400000001 Ce
   0.8625672599999999    0.3625672600000000    0.7500000000000000 Ce
   0.3625672600000000    0.7500000000000000    0.1374327400000000 Ce
   0.2500000000000000    0.1374327400000000    0.6374327400000001 Ce
   0.8625672599999999    0.6374327400000001    0.7500000000000000 Ce
   0.6374327400000001    0.2500000000000000    0.8625672599999999 Ce
   0.7500000000000000    0.8625672599999999    0.3625672600000000 Ce
   0.1374327400000000    0.3625672600000000    0.2500000000000000 Ce
   0.3625672600000000    0.2500000000000000    0.8625672599999999 Ce
   0.2500000000000000    0.8625672599999999    0.3625672600000000 Ce
   0.8625672599999999    0.3625672600000000    0.2500000000000000 Ce
   0.6374327400000001    0.7500000000000000    0.1374327400000000 Ce
   0.7500000000000000    0.1374327400000000    0.6374327400000001 Ce
   0.1374327400000000    0.6374327400000001    0.7500000000000000 Ce
   0.7500000000000000    0.3496135600000000    0.1503864400000000 Se
   0.6503864400000000    0.8496135600000000    0.7500000000000000 Se
   0.1503864400000000    0.2500000000000000    0.6503864400000000 Se
   0.2500000000000000    0.6503864400000000    0.8496135600000000 Se
   0.3496135600000000    0.1503864400000000    0.2500000000000000 Se
   0.8496135600000000    0.7500000000000000    0.3496135600000000 Se
   0.7500000000000000    0.6503864400000000    0.8496135600000000 Se
   0.6503864400000000    0.1503864400000000    0.2500000000000000 Se
   0.1503864400000000    0.7500000000000000    0.3496135600000000 Se
   0.2500000000000000    0.3496135600000000    0.1503864400000000 Se
   0.3496135600000000    0.8496135600000000    0.7500000000000000 Se
   0.8496135600000000    0.2500000000000000    0.6503864400000000 Se
   0.2500000000000000    0.6503864400000000    0.1503864400000000 Se
   0.3496135600000000    0.1503864400000000    0.7500000000000000 Se
   0.8496135600000000    0.7500000000000000    0.6503864400000000 Se
   0.7500000000000000    0.3496135600000000    0.8496135600000000 Se
   0.6503864400000000    0.8496135600000000    0.2500000000000000 Se
   0.1503864400000000    0.2500000000000000    0.3496135600000000 Se
   0.2500000000000000    0.3496135600000000    0.8496135600000000 Se
   0.3496135600000000    0.8496135600000000    0.2500000000000000 Se
   0.8496135600000000    0.2500000000000000    0.3496135600000000 Se
   0.7500000000000000    0.6503864400000000    0.1503864400000000 Se
   0.6503864400000000    0.1503864400000000    0.7500000000000000 Se
   0.1503864400000000    0.7500000000000000    0.6503864400000000 Se
   0.1493693500000000    0.5000000000000000    0.3118340000000000 Se
   0.5000000000000000    0.6881660000000001    0.1493693500000000 Se
   0.3118340000000000    0.8506306500000000    0.5000000000000000 Se
   0.8506306500000000    0.5000000000000000    0.6881660000000001 Se
   0.5000000000000000    0.3118340000000000    0.8506306500000000 Se
   0.6881660000000001    0.1493693500000000    0.5000000000000000 Se
   0.1493693500000000    0.5000000000000000    0.6881660000000001 Se
   0.3118340000000000    0.1493693500000000    0.5000000000000000 Se
   0.8506306500000000    0.5000000000000000    0.3118340000000000 Se
   0.6881660000000001    0.8506306500000000    0.5000000000000000 Se
   0.5000000000000000    0.3118340000000000    0.1493693500000000 Se
   0.5000000000000000    0.6881660000000001    0.8506306500000000 Se
   0.6493693500000000    0.8118339999999999    0.0000000000000000 Se
   0.0000000000000000    0.6493693500000000    0.1881660000000000 Se
   0.8118339999999999    0.0000000000000000    0.3506306500000000 Se
   0.3506306500000000    0.1881660000000000    0.0000000000000000 Se
   0.0000000000000000    0.3506306500000000    0.8118339999999999 Se
   0.1881660000000000    0.0000000000000000    0.6493693500000000 Se
   0.6493693500000000    0.1881660000000000    0.0000000000000000 Se
   0.8118339999999999    0.0000000000000000    0.6493693500000000 Se
   0.3506306500000000    0.8118339999999999    0.0000000000000000 Se
   0.1881660000000000    0.0000000000000000    0.3506306500000000 Se
   0.0000000000000000    0.6493693500000000    0.8118339999999999 Se
   0.0000000000000000    0.3506306500000000    0.1881660000000000 Se
