Mn2 O4
1.0
  10.2098359999999992   -1.4628300000000001    0.0000000000000000
  10.2098359999999992    1.4628300000000001    0.0000000000000000
  10.0002460000000006    0.0000000000000000    2.5250130000000000
Mn O
2 4
direct
   0.5000000000000001    0.5000000000000001    0.5000000000000000 Mn
   0.0000000000000000    0.0000000000000000    0.0000000000000000 Mn
   0.6351960000000001    0.6351960000000001    0.6351960000000000 O
   0.1981210000000000    0.1981210000000000    0.1981210000000000 O
   0.8018789999999999    0.8018789999999999    0.8018790000000000 O
   0.3648040000000000    0.3648040000000000    0.3648040000000000 O
