Dy1 Mn12
1.0
   4.3789410000000002    0.0000000000000000    1.6999730000000000
   2.1894710000000002    5.8514400000000002    0.8499860000000000
   0.0718290000000000    0.0000000000000000    6.3047959999999996
Dy Mn
1 12
direct
   0.0000000000000000    0.0000000000000000    0.0000000000000000 Dy
   0.7294929999999999    0.7705070000000001    0.7705070000000003 Mn
   0.5000000000000000    0.0000000000000000    0.5000000000000000 Mn
   0.0000000000000000    0.5000000000000000   -0.0000000000000000 Mn
   0.5000000000000002    0.5000000000000000   -0.0000000000000000 Mn
   0.0000000000000000    0.0000000000000000    0.5000000000000000 Mn
   0.3651040000000002    0.6348960000000000    0.6348960000000001 Mn
   0.0000000000000000    0.3651040000000000    0.6348960000000001 Mn
   0.0000000000000000    0.6348960000000000    0.3651040000000000 Mn
   0.6348960000000000    0.3651040000000000    0.3651040000000000 Mn
   0.2705070000000000    0.2294930000000000    0.2294930000000001 Mn
   0.5000000000000001    0.7705070000000001    0.2294930000000001 Mn
   0.5000000000000001    0.2294930000000000    0.7705070000000002 Mn
