K7 Hg31
1.0
   5.7668720000000002   -9.9885160000000006    0.0000000000000000
   5.7668720000000002    9.9885160000000006    0.0000000000000000
   0.0000000000000000    0.0000000000000000   10.3761729999999996
K Hg
7 31
direct
   0.0000000000000000    0.0000000000000000    0.0000000000000000 K
   0.3333329999999999    0.6666670000000000    0.0000000000000000 K
   0.1676350000000000    0.3352690000000000    0.5000000000000000 K
   0.6647309999999998    0.8323649999999999    0.5000000000000000 K
   0.1676350000000000    0.8323649999999999    0.5000000000000000 K
   0.6666669999999999    0.3333329999999999    0.7967560000000001 K
   0.6666669999999999    0.3333329999999999    0.2032440000000000 K
   0.3991750000000000    0.3358490000000000    0.0000000000000000 Hg
   0.6641509999999999    0.0633269999999999    0.0000000000000000 Hg
   0.9366729999999999    0.6008249999999999    0.0000000000000000 Hg
   0.9366730000000000    0.3358490000000000    0.0000000000000000 Hg
   0.6641509999999999    0.6008249999999999    0.0000000000000000 Hg
   0.3991749999999999    0.0633270000000000    0.0000000000000000 Hg
   0.1712610000000000    0.3425220000000000    0.8327730000000000 Hg
   0.6574780000000000    0.8287389999999999    0.8327730000000000 Hg
   0.1712610000000000    0.8287389999999999    0.8327730000000000 Hg
   0.1712610000000000    0.3425220000000000    0.1672270000000000 Hg
   0.6574780000000000    0.8287389999999999    0.1672270000000000 Hg
   0.1712610000000000    0.8287389999999999    0.1672270000000000 Hg
   0.8549610000000001    0.7099220000000001    0.7346680000000001 Hg
   0.2900780000000000    0.1450390000000000    0.7346680000000001 Hg
   0.8549610000000000    0.1450389999999999    0.7346680000000001 Hg
   0.4889399999999999    0.9778799999999999    0.6995780000000000 Hg
   0.4889399999999999    0.5110600000000000    0.6995780000000000 Hg
   0.0221200000000000    0.5110600000000000    0.6995780000000000 Hg
   0.4889399999999999    0.9778799999999999    0.3004220000000001 Hg
   0.0221200000000000    0.5110600000000000    0.3004220000000001 Hg
   0.4889399999999999    0.5110600000000000    0.3004220000000001 Hg
   0.8549610000000001    0.7099220000000001    0.2653320000000000 Hg
   0.8549610000000000    0.1450389999999999    0.2653320000000000 Hg
   0.2900780000000000    0.1450390000000000    0.2653320000000000 Hg
   0.0000000000000000    0.0000000000000000    0.6414490000000002 Hg
   0.3333329999999999    0.6666670000000000    0.6461730000000000 Hg
   0.3333329999999999    0.6666670000000000    0.3538270000000000 Hg
   0.0000000000000000    0.0000000000000000    0.3585510000000001 Hg
   0.7635940000000000    0.5271890000000000    0.5000000000000000 Hg
   0.4728109999999999    0.2364059999999999    0.5000000000000000 Hg
   0.7635939999999999    0.2364059999999999    0.5000000000000000 Hg
