Mg7 V1
1.0
   0.0000000000000000    4.3617080000000001    4.3617080000000001
   4.3617080000000001    0.0000000000000000    4.3617080000000001
   4.3617080000000001    4.3617080000000001    0.0000000000000000
Mg V
7 1
direct
   0.5000000000000000    0.5000000000000000    0.5000000000000000 Mg
   0.0000000000000000   -0.0000000000000000    0.5000000000000000 Mg
   0.5000000000000000    0.0000000000000000    0.5000000000000000 Mg
   0.0000000000000000    0.5000000000000000    0.5000000000000000 Mg
   0.5000000000000000    0.5000000000000000   -0.0000000000000000 Mg
   0.0000000000000000    0.5000000000000000   -0.0000000000000000 Mg
   0.5000000000000000    0.0000000000000000   -0.0000000000000000 Mg
   0.0000000000000000    0.0000000000000000    0.0000000000000000 V
