Cr2 N4
1.0
   4.6506670000000003    0.0000000000000000    0.0000000000000000
   0.0000000000000000    4.6506670000000003    0.0000000000000000
   0.0000000000000000    0.0000000000000000    2.6524500000000000
Cr N
2 4
direct
   0.5000000000000000    0.5000000000000000    0.5000000000000000 Cr
   0.0000000000000000    0.0000000000000000    0.0000000000000000 Cr
   0.7989670000000001    0.2010330000000000    0.5000000000000000 N
   0.2010330000000000    0.7989670000000001    0.5000000000000000 N
   0.2989670000000000    0.2989670000000000    0.0000000000000000 N
   0.7010330000000000    0.7010330000000000    0.0000000000000000 N
