Mo3 Se6
1.0
   1.6634739999999999   -2.8812220000000002    0.0000000000000000
   1.6634739999999999    2.8812220000000002    0.0000000000000000
   0.0000000000000000    0.0000000000000000   33.1771349999999998
Mo Se
3 6
direct
   0.6666670000000000    0.3333330000000000    0.0000000000000000 Mo
   0.3333330000000000    0.6666670000000000    0.7671370000000000 Mo
   0.3333330000000000    0.6666670000000000    0.2328630000000000 Mo
   0.3333330000000000    0.6666670000000000    0.0504150000000000 Se
   0.6666670000000000    0.3333330000000000    0.8175520000000001 Se
   0.6666670000000000    0.3333330000000000    0.2832770000000000 Se
   0.3333330000000000    0.6666670000000000    0.9495850000000000 Se
   0.6666670000000000    0.3333330000000000    0.7167230000000000 Se
   0.6666670000000000    0.3333330000000000    0.1824480000000000 Se
