Dy2 Ga12
1.0
   6.0146879999999996    0.0000000000000000    0.0000000000000000
   0.0000000000000000    6.0146879999999996    0.0000000000000000
   0.0000000000000000    0.0000000000000000    7.5807620000000000
Dy Ga
2 12
direct
   0.5000000000000000    0.0000000000000000    0.0000000000000000 Dy
   0.0000000000000000    0.5000000000000000    0.0000000000000000 Dy
   0.5000000000000000    0.5000000000000000    0.1602430000000000 Ga
   0.0000000000000000    0.0000000000000000    0.1602430000000000 Ga
   0.0000000000000000    0.0000000000000000    0.8397570000000000 Ga
   0.5000000000000000    0.5000000000000000    0.8397570000000000 Ga
   0.8056719999999999    0.6943279999999999    0.3470830000000000 Ga
   0.3056720000000000    0.8056719999999999    0.3470830000000000 Ga
   0.6943279999999999    0.1943280000000000    0.3470830000000000 Ga
   0.1943280000000000    0.3056720000000000    0.3470830000000000 Ga
   0.6943279999999999    0.8056719999999999    0.6529170000000000 Ga
   0.1943280000000000    0.6943279999999999    0.6529170000000000 Ga
   0.8056719999999999    0.3056720000000000    0.6529170000000000 Ga
   0.3056720000000000    0.1943280000000000    0.6529170000000000 Ga
