Sm2 Se4
1.0
   4.1243730000000003    0.0000000000000000    0.0000000000000000
   0.0000000000000000    4.1243730000000003    0.0000000000000000
   0.0000000000000000    0.0000000000000000    8.5209200000000003
Sm Se
2 4
direct
   0.0000000000000000    0.5000000000000000    0.7257500000000000 Sm
   0.5000000000000000    0.0000000000000000    0.2742500000000000 Sm
   0.0000000000000000    0.0000000000000000    0.0000000000000000 Se
   0.5000000000000000    0.5000000000000000    0.0000000000000000 Se
   0.0000000000000000    0.5000000000000000    0.3677820000000000 Se
   0.5000000000000000    0.0000000000000000    0.6322179999999999 Se
