Ge8
1.0
   3.5113259999999999   -5.0124019999999998    0.0000000000000000
   3.5113259999999999    5.0124019999999998    0.0000000000000000
  -3.6438560000000000    0.0000000000000000    4.9168979999999998
Ge
8
direct
   0.2855190000000000    0.2855190000000000    0.2855190000000000 Ge
   0.7144809999999999    0.7144809999999999    0.7144810000000000 Ge
   0.9730700000000000    0.4699470000000001    0.2782330000000000 Ge
   0.4699469999999999    0.2782330000000000    0.9730699999999999 Ge
   0.2782330000000001    0.9730700000000001    0.4699470000000000 Ge
   0.0269300000000000    0.5300530000000000    0.7217670000000000 Ge
   0.5300530000000001    0.7217670000000000    0.0269300000000000 Ge
   0.7217670000000000    0.0269300000000000    0.5300530000000000 Ge
