Mg6 Si6
1.0
   4.6245750000000001    0.0000000000000000    0.0000000000000000
   0.3729820000000000    5.0729249999999997    0.0000000000000000
   1.7966169999999999    0.4507520000000000   10.2423179999999991
Mg Si
6 6
direct
   0.9053190000000003    0.6903270000000000    0.8951470000000000 Mg
   0.4871990000000000    0.8910929999999999    0.2442250000000000 Mg
   0.8195480000000001    0.5810300000000002    0.4725340000000000 Mg
   0.3644430000000001    0.0827220000000000    0.5306910000000000 Mg
   0.2526800000000000    0.4628020000000000    0.1066290000000000 Mg
   0.7048610000000000    0.2929480000000000    0.7458790000000000 Mg
   0.4628350000000001    0.8285180000000001    0.7685270000000000 Si
   0.7174469999999999    0.3759470000000000    0.2242490000000000 Si
   0.8125260000000000    0.1912150000000000    0.0065900000000000 Si
   0.3037760000000000    0.9626640000000000    0.9902590000000000 Si
   0.2409320000000000    0.5625480000000000    0.6379250000000000 Si
   0.9285450000000003    0.0783430000000000    0.3772040000000000 Si
