H8 O4
1.0
   2.0744030000000002   -3.7739180000000001    0.0000000000000000
   2.0744030000000002    3.7739180000000001    0.0000000000000000
   0.0000000000000000    0.0000000000000000    6.2686409999999997
H O
8 4
direct
   0.8559630000000000    0.1440370000000000    0.2500000000000000 H
   0.1440370000000000    0.8559630000000000    0.7500000000000001 H
   0.8699910000000000    0.8699910000000000    0.5000000000000000 H
   0.1300090000000000    0.1300090000000000    0.0000000000000000 H
   0.2528299999999999    0.8098189999999998    0.4933120000000000 H
   0.1901809999999999    0.7471700000000000    0.0066880000000000 H
   0.7471700000000000    0.1901809999999999    0.9933120000000001 H
   0.8098189999999998    0.2528299999999999    0.5066880000000000 H
   0.7238350000000000    0.0227910000000000    0.4251860000000000 O
   0.9772090000000000    0.2761650000000000    0.0748140000000000 O
   0.2761650000000000    0.9772090000000000    0.9251860000000001 O
   0.0227910000000000    0.7238350000000000    0.5748140000000002 O
