Mg5 Sc1
1.0
   1.6181880000000000   -8.2918599999999998    0.0000000000000000
   1.6181880000000000    8.2918599999999998    0.0000000000000000
   0.0000000000000000    0.0000000000000000    5.1906929999999996
Mg Sc
5 1
direct
   0.9978320000000001    0.0021679999999999    0.0000000000000000 Mg
   0.3320770000000000    0.6679229999999999    0.0000000000000000 Mg
   0.6678759999999999    0.3321239999999999    0.0000000000000000 Mg
   0.4441810000000000    0.5558190000000000    0.5000000000000000 Mg
   0.1111979999999999    0.8888020000000000    0.5000000000000000 Mg
   0.7801690000000000    0.2198309999999999    0.5000000000000000 Sc
