Al40 O60
1.0
  10.6534921300000001    0.0637804200000000   -0.1348234900000000
   0.0704987100000000    9.8791979500000000    0.3240928900000000
  -0.1288593200000000    0.3124772800000000   10.5120532699999991
Al O
40 60
direct
   0.3133579900000000    0.3738904200000001    0.2306482100000000 Al
   0.2243892500000000    0.0077708600000000    0.3873915000000000 Al
   0.5398317700000000    0.8444512100000001    0.7148011100000000 Al
   0.5837908900000001    0.6994451200000003    0.9893645400000001 Al
   0.2171140900000000    0.8161258500000004    0.6301069500000001 Al
   0.1207457200000000    0.3174572500000001    0.7202991200000000 Al
   0.9187316900000000    0.1694340100000000    0.8041560300000001 Al
   0.3265598900000001    0.8572419800000001    0.9309090700000000 Al
   0.2809070300000001    0.5523494500000000    0.7596908800000000 Al
   0.8524413400000002    0.6831345100000001    0.5449407500000000 Al
   0.7114949300000000    0.9920796100000001    0.4357158000000000 Al
   0.6168765600000001    0.2762033500000001    0.2963013000000000 Al
   0.9461605000000000    0.8059093200000000    0.3449877100000001 Al
   0.4264369200000000    0.7565067500000001    0.4479269200000000 Al
   0.2942098200000001    0.4995356900000001    0.5101929700000000 Al
   0.2553337800000001    0.1309361700000000    0.1010077600000000 Al
   0.7151319700000001    0.4660880100000001    0.1004726200000000 Al
   0.6229979000000001    0.2979207000000000    0.7001690699999999 Al
   0.7295711499999998    0.0204305900000000    0.7173796400000000 Al
   0.4725957500000000    0.2128007300000000    0.4802925700000000 Al
   0.9101194400000001    0.2179526500000000    0.3357733400000000 Al
   0.9668801700000001    0.1181618300000000    0.0367918300000000 Al
   0.6945436900000002    0.9537120300000002    0.9964078900000001 Al
   0.4466155800000000    0.9323680900000000    0.1563387200000000 Al
   0.1285284300000000    0.3083827300000000    0.4346941700000000 Al
   0.8589911900000002    0.4853496500000001    0.3223139300000000 Al
   0.9876825399999999    0.0283376800000000    0.5554903300000000 Al
   0.4203536200000000    0.4368393600000000    0.0126374600000000 Al
   0.5547487700000002    0.5360951100000001    0.5660367000000001 Al
   0.6627325600000000    0.7166644900000000    0.3254129199999999 Al
   0.2184906000000000    0.6199430400000001    0.0245802600000000 Al
   0.7320706500000002    0.5876629300000001    0.7988451400000001 Al
   0.0161849400000000    0.6211518800000001    0.8209243699999998 Al
   0.8770636700000001    0.6779172300000000    0.0558493900000000 Al
   0.3023231900000001    0.0773513300000000    0.6562854100000000 Al
   0.0179669100000000    0.3744989600000000    0.0788690400000000 Al
   0.3930930400000001    0.2961250200000000    0.7744429700000001 Al
   0.1033867100000000    0.8719352100000001    0.1587839900000000 Al
   0.5512566300000000    0.1995928200000000    0.0277426000000000 Al
   0.9981947700000001    0.8930539000000001    0.8197715200000000 Al
   0.8171472200000001    0.0646208000000000    0.9787731000000000 O
   0.3393221000000000    0.0193158100000000    0.0008825200000000 O
   0.8909041399999998    0.9799050600000002    0.7057506600000001 O
   0.5005919100000000    0.7268436000000001    0.6009419200000000 O
   0.3290834700000000    0.4184558000000000    0.8779025500000001 O
   0.3203004100000000    0.1299357900000001    0.4846742200000000 O
   0.2514214700000000    0.2004414400000000    0.7661846099999999 O
   0.6521540400000000    0.4737869200000001    0.7110587300000000 O
   0.9342814600000000    0.2227654700000000    0.1682546600000000 O
   0.6091311500000000    0.7080679800000002    0.8222399600000001 O
   0.4680995200000000    0.1740137800000000    0.6622031000000000 O
   0.9816948699999999    0.3696510300000000    0.3854903900000000 O
   0.1493943800000000    0.9874025800000001    0.6184672900000000 O
   0.5806707600000001    0.3473354600000000    0.5313851600000000 O
   0.5808806500000000    0.0318701800000000    0.0949049900000000 O
   0.7653066800000000    0.8604450900000000    0.3357199500000000 O
   0.6521118200000000    0.9410396800000002    0.5929883500000001 O
   0.7051785800000000    0.5756660400000001    0.2385732500000000 O
   0.1027109700000000    0.7729389700000001    0.7570691100000000 O
   0.1882521200000000    0.3697449300000001    0.5750848400000000 O
   0.7853930800000001    0.5466773000000003    0.9570602400000000 O
   0.3617838900000000    0.9058919300000001    0.7446248900000001 O
   0.3057197400000000    0.6739556400000001    0.8822024000000001 O
   0.9768630400000000    0.2822546500000000    0.9328263300000001 O
   0.1032812200000000    0.8815840300000000    0.3265056600000000 O
   0.2430114100000000    0.6413386200000000    0.6046043000000000 O
   0.3011126200000000    0.8639965600000001    0.4785325000000001 O
   0.0850689000000000    0.1336850800000000    0.4090700500000001 O
   0.0699198200000000    0.5467648700000001    0.9979218700000000 O
   0.1139702000000000    0.4879234700000000    0.7690814600000000 O
   0.4044729500000000    0.2639037300000000    0.0826194800000000 O
   0.3997990400000000    0.4542594600000001    0.6609070100000000 O
   0.4298312600000000    0.5773237800000000    0.4345012700000000 O
   0.1795903100000000    0.2958848400000000    0.1432841100000000 O
   0.7196559800000001    0.7812973900000001    0.0540380700000000 O
   0.2062344400000000    0.7919237000000001    0.0587038700000000 O
   0.5599011300000000    0.5268466900000001    0.0291600100000000 O
   0.9183456100000000    0.6288791200000000    0.4001308600000000 O
   0.1047603400000000    0.0435938300000000    0.1119755500000000 O
   0.3249245500000000    0.5210558500000001    0.1218058800000000 O
   0.4617082900000001    0.8036175900000001    0.0358409300000000 O
   0.8538199100000001    0.0862969100000000    0.4474699800000000 O
   0.9321329800000001    0.7554877100000003    0.9097259500000000 O
   0.5421625600000000    0.2717468400000000    0.8671648000000001 O
   0.9582204800000002    0.7800627100000000    0.1698685200000000 O
   0.5122249100000000    0.8132307600000001    0.3043766900000000 O
   0.4539556500000000    0.3146853000000000    0.3202094700000000 O
   0.5948086900000001    0.1167491600000000    0.3886106899999999 O
   0.8985683400000000    0.4918218600000002    0.1521464400000000 O
   0.6924772200000001    0.6373333400000000    0.4882884200000000 O
   0.2325243000000000    0.4300299800000000    0.3605590600000000 O
   0.8720539300000000    0.6213270600000002    0.7083645900000000 O
   0.7666025800000000    0.3311807400000000    0.3373730000000000 O
   0.9420666000000001    0.8396310000000000    0.5165557900000001 O
   0.6510038900000000    0.2979282800000000    0.1258647600000000 O
   0.0308862200000000    0.0442324200000000    0.8861868800000001 O
   0.9982334300000000    0.2193838500000000    0.6640020100000000 O
   0.7561255599999999    0.1939821400000000    0.7348962999999999 O
   0.3229090100000001    0.0236327600000000    0.2416765400000000 O
   0.6265841600000001    0.9574931500000001    0.8346505200000000 O
