Co3 Bi1
1.0
  -1.9315840000000000    1.9315840000000000    3.7615099999999999
   1.9315840000000000   -1.9315840000000000    3.7615099999999999
   1.9315840000000000    1.9315840000000000   -3.7615099999999999
Co Bi
3 1
direct
   0.7500000000000000    0.2500000000000000    0.5000000000000000 Co
   0.2500000000000001    0.7500000000000000    0.5000000000000000 Co
   0.5000000000000000    0.5000000000000000    0.0000000000000000 Co
   0.0000000000000000    0.0000000000000000    0.0000000000000000 Bi
