Ce8 C12
1.0
  -4.2027120000000000    4.2027120000000000    4.2027120000000000
   4.2027120000000000   -4.2027120000000000    4.2027120000000000
   4.2027120000000000    4.2027120000000000   -4.2027120000000000
Ce C
8 12
direct
   0.5000000000000000   -0.0000000000000000    0.5993289999999999 Ce
   0.0993290000000000    0.5000000000000000    0.0000000000000000 Ce
   0.4006710000000000    0.4006710000000000    0.4006710000000000 Ce
   0.0000000000000000    0.0993290000000000    0.5000000000000000 Ce
   0.9006710000000001    0.9006710000000001    0.9006710000000001 Ce
   0.0000000000000000    0.5993290000000000    0.5000000000000000 Ce
   0.5993289999999999    0.4999999999999999    0.0000000000000000 Ce
   0.5000000000000000   -0.0000000000000000    0.0993290000000000 Ce
   0.7932810000000000    0.2500000000000000    0.0432810000000000 C
   0.9567189999999999    0.2500000000000000    0.2067190000000001 C
   0.7500000000000000    0.2932810000000001    0.5432810000000000 C
   0.2067190000000001    0.9567190000000000    0.2500000000000001 C
   0.2500000000000001    0.2067190000000001    0.9567190000000001 C
   0.2932810000000001    0.5432810000000000    0.7500000000000000 C
   0.7067190000000000    0.7500000000000000    0.4567190000000000 C
   0.0432810000000000    0.7932810000000000    0.2499999999999999 C
   0.5432810000000000    0.7500000000000000    0.2932810000000000 C
   0.7500000000000001    0.4567190000000000    0.7067190000000000 C
   0.2500000000000000    0.0432810000000001    0.7932810000000001 C
   0.4567190000000000    0.7067190000000000    0.7500000000000000 C
