Ho2 Tm6
1.0
   3.5590540000000002   -6.1644629999999996    0.0000000000000000
   3.5590540000000002    6.1644629999999996    0.0000000000000000
   0.0000000000000000    0.0000000000000000    5.5679340000000002
Ho Tm
2 6
direct
   0.3333330000000000    0.6666669999999999    0.7500000000000000 Ho
   0.6666670000000000    0.3333330000000000    0.2500000000000000 Ho
   0.1663650000000000    0.3327300000000000    0.2500000000000000 Tm
   0.6672700000000003    0.8336349999999999    0.2500000000000000 Tm
   0.1663650000000002    0.8336349999999999    0.2500000000000000 Tm
   0.8336350000000001    0.6672700000000000    0.7500000000000000 Tm
   0.3327300000000001    0.1663650000000000    0.7500000000000000 Tm
   0.8336350000000000    0.1663650000000000    0.7500000000000000 Tm
