Yb8 Sb6
1.0
  -4.7245650000000001    4.7245650000000001    4.7245650000000001
   4.7245650000000001   -4.7245650000000001    4.7245650000000001
   4.7245650000000001    4.7245650000000001   -4.7245650000000001
Yb Sb
8 6
direct
   0.5000000000000000    0.0000000000000000    0.3500400000000001 Yb
   0.6499600000000000    0.6499600000000000    0.6499600000000000 Yb
  -0.0000000000000000    0.3500400000000000    0.5000000000000000 Yb
   0.3500400000000001    0.5000000000000000   -0.0000000000000000 Yb
  -0.0000000000000000    0.8500400000000001    0.5000000000000000 Yb
   0.8500400000000000    0.5000000000000000   -0.0000000000000000 Yb
   0.4999999999999999    0.0000000000000000    0.8500400000000000 Yb
   0.1499600000000000    0.1499600000000000    0.1499600000000000 Yb
   0.8750000000000001    0.1249999999999999    0.7500000000000000 Sb
   0.3749999999999999    0.2500000000000000    0.6249999999999999 Sb
   0.1250000000000000    0.7500000000000000    0.8750000000000000 Sb
   0.7500000000000000    0.8750000000000001    0.1250000000000000 Sb
   0.2500000000000000    0.6249999999999999    0.3749999999999999 Sb
   0.6250000000000000    0.3750000000000000    0.2500000000000000 Sb
