Co4 P12
1.0
  -3.8604989999999999    3.8604989999999999    3.8604989999999999
   3.8604989999999999   -3.8604989999999999    3.8604989999999999
   3.8604989999999999    3.8604989999999999   -3.8604989999999999
Co P
4 12
direct
  -0.0000000000000000   -0.0000000000000000    0.5000000000000000 Co
   0.0000000000000000    0.5000000000000000   -0.0000000000000000 Co
   0.5000000000000000    0.0000000000000000    0.0000000000000000 Co
   0.5000000000000000    0.5000000000000000    0.5000000000000000 Co
   0.8538790000000001    0.6519660000000002    0.5058450000000000 P
   0.8538790000000001    0.3480340000000000    0.2019130000000000 P
   0.1461210000000000    0.6519660000000002    0.7980870000000001 P
   0.3480340000000000    0.4941550000000000    0.1461210000000000 P
   0.1461210000000001    0.3480340000000000    0.4941550000000000 P
   0.6519660000000002    0.7980870000000001    0.1461210000000000 P
   0.2019130000000000    0.8538790000000001    0.3480340000000000 P
   0.6519660000000002    0.5058450000000000    0.8538790000000001 P
   0.7980870000000001    0.1461210000000000    0.6519660000000002 P
   0.3480340000000000    0.2019130000000000    0.8538790000000001 P
   0.5058450000000001    0.8538790000000002    0.6519660000000002 P
   0.4941550000000001    0.1461210000000000    0.3480340000000000 P
