Ce24 Se48
1.0
  -9.6410769999999992    9.6410769999999992    9.6410769999999992
   9.6410769999999992   -9.6410769999999992    9.6410769999999992
   9.6410769999999992    9.6410769999999992   -9.6410769999999992
Ce Se
24 48
direct
   0.3115270000000000    0.1311250000000000    0.4375380000000000 Ce
   0.1884730000000001    0.6260110000000001    0.8195980000000002 Ce
   0.1935870000000000    0.8739890000000001    0.0624620000000000 Ce
   0.3064130000000001    0.3688750000000001    0.6804020000000000 Ce
   0.3688750000000000    0.6804020000000000    0.3064130000000000 Ce
   0.8739890000000001    0.0624620000000000    0.1935870000000000 Ce
   0.6260110000000000    0.8195980000000000    0.1884730000000000 Ce
   0.1311250000000000    0.4375380000000000    0.3115270000000000 Ce
   0.8195980000000002    0.1884730000000000    0.6260110000000001 Ce
   0.4375380000000000    0.3115270000000000    0.1311250000000000 Ce
   0.6804020000000000    0.3064130000000000    0.3688750000000000 Ce
   0.0624620000000000    0.1935870000000000    0.8739890000000001 Ce
   0.6884730000000000    0.8688750000000001    0.5624620000000000 Ce
   0.8115270000000001    0.3739890000000001    0.1804020000000000 Ce
   0.8064130000000002    0.1260110000000001    0.9375380000000001 Ce
   0.6935870000000001    0.6311250000000002    0.3195980000000000 Ce
   0.6311250000000000    0.3195980000000000    0.6935870000000001 Ce
   0.1260110000000001    0.9375380000000001    0.8064130000000000 Ce
   0.3739890000000000    0.1804020000000000    0.8115270000000000 Ce
   0.8688750000000001    0.5624620000000000    0.6884730000000000 Ce
   0.1804020000000000    0.8115270000000000    0.3739890000000001 Ce
   0.5624620000000000    0.6884730000000000    0.8688750000000001 Ce
   0.3195980000000000    0.6935870000000001    0.6311250000000000 Ce
   0.9375380000000001    0.8064130000000002    0.1260110000000000 Ce
   0.5063450000000000    0.2402250000000000    0.4992940000000000 Se
   0.9936550000000001    0.4929490000000001    0.7338800000000000 Se
   0.2409310000000000    0.0070510000000000    0.0007060000000000 Se
   0.2590690000000000    0.2597750000000000    0.7661200000000001 Se
   0.2597750000000000    0.7661200000000000    0.2590690000000000 Se
   0.0070510000000000    0.0007060000000000    0.2409310000000000 Se
   0.4929490000000001    0.7338800000000000    0.9936550000000001 Se
   0.2402250000000000    0.4992940000000000    0.5063450000000000 Se
   0.7338800000000000    0.9936550000000000    0.4929490000000000 Se
   0.4992940000000000    0.5063450000000000    0.2402250000000000 Se
   0.7661200000000001    0.2590690000000000    0.2597750000000000 Se
   0.0007060000000000    0.2409310000000000    0.0070510000000000 Se
   0.4936550000000001    0.7597750000000001    0.5007060000000001 Se
   0.0063450000000000    0.5070510000000001    0.2661200000000001 Se
   0.7590690000000001    0.9929490000000002    0.9992940000000001 Se
   0.7409310000000001    0.7402250000000001    0.2338800000000000 Se
   0.7402250000000001    0.2338800000000000    0.7409310000000001 Se
   0.9929490000000002    0.9992940000000001    0.7590690000000000 Se
   0.5070510000000001    0.2661200000000001    0.0063450000000000 Se
   0.7597750000000000    0.5007060000000000    0.4936550000000001 Se
   0.2661200000000001    0.0063450000000000    0.5070510000000001 Se
   0.5007060000000001    0.4936550000000001    0.7597750000000001 Se
   0.2338800000000001    0.7409310000000001    0.7402250000000000 Se
   0.9992940000000003    0.7590690000000001    0.9929490000000001 Se
   0.2365710000000000    0.2500000000000000    0.4865710000000000 Se
   0.2634290000000001    0.7500000000000000    0.0134290000000000 Se
   0.2500000000000001    0.4865710000000000    0.2365710000000000 Se
   0.7500000000000000    0.0134290000000000    0.2634290000000000 Se
   0.0134290000000000    0.2634290000000000    0.7500000000000000 Se
   0.4865710000000000    0.2365710000000000    0.2500000000000000 Se
   0.7634290000000000    0.7500000000000000    0.5134290000000000 Se
   0.7365710000000001    0.2500000000000000    0.9865710000000000 Se
   0.7500000000000000    0.5134290000000000    0.7634290000000000 Se
   0.2500000000000000    0.9865710000000000    0.7365710000000001 Se
   0.9865710000000000    0.7365710000000001    0.2500000000000000 Se
   0.5134290000000001    0.7634290000000000    0.7500000000000000 Se
   0.2535030000000000    0.0035030000000000    0.2500000000000001 Se
   0.2464970000000000    0.4964970000000000    0.7500000000000000 Se
   0.4964970000000001    0.7500000000000000    0.2464970000000000 Se
   0.0035030000000000    0.2500000000000000    0.2535030000000000 Se
   0.7500000000000000    0.2464970000000000    0.4964970000000000 Se
   0.2500000000000001    0.2535030000000000    0.0035030000000000 Se
   0.7464970000000001    0.9964970000000000    0.7500000000000000 Se
   0.7535030000000000    0.5035030000000000    0.2500000000000000 Se
   0.5035030000000001    0.2500000000000000    0.7535030000000000 Se
   0.9964970000000001    0.7500000000000000    0.7464970000000000 Se
   0.2500000000000001    0.7535030000000000    0.5035030000000000 Se
   0.7500000000000001    0.7464970000000000    0.9964970000000000 Se
