Ca20 Bi12
1.0
   8.4819849999999999    0.0000000000000000    0.0000000000000000
   0.0000000000000000    9.7817340000000002    0.0000000000000000
   0.0000000000000000    0.0000000000000000   12.8412849999999992
Ca Bi
20 12
direct
   0.3068380000000001    0.9563590000000001    0.0761260000000000 Ca
   0.8068380000000001    0.0436410000000000    0.4238739999999999 Ca
   0.6931619999999999    0.4563590000000000    0.9238740000000000 Ca
   0.1931620000000000    0.5436410000000000    0.5761260000000000 Ca
   0.6931619999999999    0.0436410000000000    0.9238740000000000 Ca
   0.1931620000000000    0.9563590000000001    0.5761260000000000 Ca
   0.3068380000000001    0.5436410000000000    0.0761260000000000 Ca
   0.8068380000000001    0.4563590000000000    0.4238739999999999 Ca
   0.6801040000000000    0.7500000000000000    0.2289100000000000 Ca
   0.1801040000000000    0.2500000000000000    0.2710900000000000 Ca
   0.3198960000000000    0.2500000000000000    0.7710900000000001 Ca
   0.8198960000000000    0.7500000000000000    0.7289099999999998 Ca
   0.1507180000000000    0.7500000000000000    0.2907530000000000 Ca
   0.6507180000000000    0.2500000000000000    0.2092470000000000 Ca
   0.8492820000000000    0.2500000000000000    0.7092469999999998 Ca
   0.3492820000000000    0.7500000000000000    0.7907530000000000 Ca
   0.5351240000000000    0.7500000000000000    0.5054500000000000 Ca
   0.0351240000000000    0.2500000000000000    0.9945499999999999 Ca
   0.4648760000000000    0.2500000000000000    0.4945499999999999 Ca
   0.9648760000000000    0.7500000000000000    0.0054500000000000 Ca
   0.9350510000000000    0.0129180000000000    0.1708660000000000 Bi
   0.4350510000000001    0.9870820000000000    0.3291340000000000 Bi
   0.0649490000000000    0.5129180000000000    0.8291340000000000 Bi
   0.5649490000000000    0.4870820000000000    0.6708659999999999 Bi
   0.0649490000000000    0.9870820000000000    0.8291340000000000 Bi
   0.5649490000000000    0.0129180000000000    0.6708659999999999 Bi
   0.9350510000000000    0.4870820000000000    0.1708660000000000 Bi
   0.4350510000000001    0.5129180000000000    0.3291340000000000 Bi
   0.5786820000000000    0.7500000000000000    0.9837519999999998 Bi
   0.0786820000000000    0.2500000000000000    0.5162479999999999 Bi
   0.4213180000000001    0.2500000000000000    0.0162480000000000 Bi
   0.9213180000000000    0.7500000000000000    0.4837520000000000 Bi
