Yb10 Au6
1.0
  -3.8774380000000002    3.8774380000000002    7.2010240000000003
   3.8774380000000002   -3.8774380000000002    7.2010240000000003
   3.8774380000000002    3.8774380000000002   -7.2010240000000003
Yb Au
10 6
direct
   0.5253720000000002    0.0253720000000000    0.8371630000000002 Yb
   0.3117910000000000    0.4746280000000000    0.5000000000000001 Yb
   0.4746280000000002    0.9746280000000003    0.1628370000000001 Yb
   0.0253720000000001    0.1882090000000001    0.5000000000000001 Yb
   0.1882090000000000    0.6882090000000000    0.1628370000000000 Yb
   0.6882090000000001    0.5253720000000001    0.5000000000000000 Yb
   0.5000000000000000    0.5000000000000000    0.0000000000000000 Yb
   0.9746280000000002    0.8117909999999999    0.5000000000000001 Yb
   0.8117910000000003    0.3117910000000001    0.8371630000000002 Yb
   0.0000000000000000    0.0000000000000000    0.0000000000000000 Yb
   0.6329110000000001    0.8670890000000001    0.5000000000000001 Au
   0.2500000000000000    0.2500000000000000    0.0000000000000000 Au
   0.3670890000000001    0.1329110000000000    0.5000000000000000 Au
   0.1329110000000001    0.6329110000000000    0.7658210000000000 Au
   0.8670890000000000    0.3670890000000000    0.2341790000000000 Au
   0.7500000000000000    0.7500000000000000    0.0000000000000000 Au
