Li8 Cd4
1.0
   0.0000000000000000    5.0455800000000002    5.0455800000000002
   5.0455800000000002    0.0000000000000000    5.0455800000000002
   5.0455800000000002    5.0455800000000002    0.0000000000000000
Li Cd
8 4
direct
   0.3983840000000000    0.3983840000000000    0.3983840000000000 Li
   0.3983840000000001    0.3983840000000000    0.8048490000000000 Li
   0.3983840000000000    0.8048490000000000    0.3983840000000000 Li
   0.8516160000000002    0.8516160000000000    0.4451509999999999 Li
   0.8516160000000000    0.8516160000000002    0.8516160000000002 Li
   0.8048490000000000    0.3983840000000000    0.3983840000000000 Li
   0.8516160000000002    0.4451510000000000    0.8516160000000002 Li
   0.4451510000000000    0.8516160000000002    0.8516160000000002 Li
   0.1250000000000000    0.1250000000000000    0.1250000000000000 Cd
   0.1250000000000000    0.1250000000000000    0.6250000000000001 Cd
   0.1250000000000000    0.6250000000000001    0.1250000000000001 Cd
   0.6250000000000001    0.1250000000000000    0.1250000000000000 Cd
