Sb8 O12
1.0
   0.0000000000000000    5.7455579999999999    5.7455579999999999
   5.7455579999999999    0.0000000000000000    5.7455579999999999
   5.7455579999999999    5.7455579999999999    0.0000000000000000
Sb O
8 12
direct
   0.9125670000000000    0.3624780000000001    0.3624780000000000 Sb
   0.8875220000000001    0.3374330000000000    0.8875220000000001 Sb
   0.8875220000000001    0.8875220000000000    0.3374329999999999 Sb
   0.8875220000000000    0.8875220000000001    0.8875220000000001 Sb
   0.3624780000000000    0.3624780000000001    0.9125670000000001 Sb
   0.3624780000000001    0.3624780000000001    0.3624780000000001 Sb
   0.3624780000000000    0.9125670000000001    0.3624780000000002 Sb
   0.3374330000000000    0.8875220000000001    0.8875220000000001 Sb
   0.8149110000000002    0.8149110000000002    0.1850890000000001 O
   0.0649110000000000    0.0649110000000000    0.4350890000000000 O
   0.1850890000000000    0.8149110000000002    0.1850890000000001 O
   0.1850890000000001    0.8149110000000002    0.8149110000000001 O
   0.8149110000000002    0.1850890000000000    0.1850889999999999 O
   0.8149110000000002    0.1850890000000001    0.8149110000000001 O
   0.0649110000000000    0.4350890000000000    0.0649110000000000 O
   0.4350890000000001    0.0649110000000000    0.4350890000000001 O
   0.1850890000000000    0.1850890000000000    0.8149110000000002 O
   0.4350890000000001    0.0649110000000000    0.0649110000000000 O
   0.0649110000000000    0.4350890000000001    0.4350890000000001 O
   0.4350890000000001    0.4350890000000001    0.0649109999999999 O
