Li3 Mg1
1.0
   3.0849650000000000    0.0000000000000000    0.0000000000000000
   0.0000000000000000    4.9802809999999997    0.0000000000000000
   0.0000000000000000    0.0000000000000000    5.2503799999999998
Li Mg
3 1
direct
   0.0000000000000000    0.0000000000000000    0.9986559999999999 Li
   0.5000000000000000    0.0000000000000000    0.4995850000000000 Li
   0.5000000000000000    0.5000000000000000    0.8329019999999999 Li
   0.0000000000000000    0.5000000000000000    0.3355240000000000 Mg
