Mg8 Si4
1.0
   5.9323600000000001    0.0000000000000000    0.0000000000000000
   2.9321009999999998    5.1951599999999996    0.0000000000000000
   2.8376340000000000    1.1650000000000000    7.3986409999999996
Mg Si
8 4
direct
   0.4610040000000002    0.8322630000000001    0.6412850000000000 Mg
   0.2414060000000000    0.1170010000000000    0.3134080000000000 Mg
   0.7520330000000000    0.0844250000000000    0.3366060000000000 Mg
   0.0628189999999999    0.7902840000000001    0.9930730000000000 Mg
   0.2636139999999999    0.5863020000000000    0.3450430000000000 Mg
   0.9445930000000001    0.3349200000000000    0.6717530000000000 Mg
   0.4270620000000002    0.3295290000000000    0.7074570000000000 Mg
   0.5625640000000001    0.8332109999999999    0.9915170000000000 Mg
   0.0064750000000000    0.2998990000000001    0.0215760000000000 Si
   0.9668709999999997    0.8414780000000001    0.6472980000000000 Si
   0.7501450000000001    0.6028429999999999    0.3247320000000000 Si
   0.5618840000000002    0.3479550000000000    0.0061440000000000 Si
