Sb12 Pd32
1.0
  15.1823999999999995   -3.9014750000000000    0.0000000000000000
  15.1823999999999995    3.9014750000000000    0.0000000000000000
  14.1798240000000000    0.0000000000000000    6.6827660000000000
Sb Pd
12 32
direct
   0.0686580000000000    0.0686580000000000    0.0686580000000000 Sb
   0.5686580000000001    0.5686580000000001    0.5686579999999999 Sb
   0.4229030000000001    0.4229030000000000    0.4229029999999999 Sb
   0.9229030000000003    0.9229030000000001    0.9229029999999999 Sb
   0.7923040000000001    0.7923040000000001    0.7923039999999999 Sb
   0.2923040000000001    0.2923040000000001    0.2923040000000000 Sb
   0.4111330000000001    0.8228460000000001    0.2033660000000000 Sb
   0.8228460000000000    0.2033659999999999    0.4111330000000000 Sb
   0.2033660000000002    0.4111330000000001    0.8228459999999999 Sb
   0.3228460000000000    0.9111330000000001    0.7033660000000000 Sb
   0.9111330000000000    0.7033660000000000    0.3228460000000000 Sb
   0.7033660000000002    0.3228460000000001    0.9111329999999999 Sb
   0.3261140000000001    0.6112590000000001    0.0543510000000000 Pd
   0.6112590000000000    0.0543510000000000    0.3261140000000000 Pd
   0.0543510000000000    0.3261140000000000    0.6112590000000000 Pd
   0.1112590000000001    0.8261140000000001    0.5543510000000000 Pd
   0.8261140000000001    0.5543510000000001    0.1112590000000000 Pd
   0.5543510000000001    0.1112590000000000    0.8261140000000000 Pd
   0.0085600000000000    0.0085600000000000    0.0085600000000000 Pd
   0.5085600000000000    0.5085600000000000    0.5085599999999999 Pd
   0.6766250000000003    0.6766250000000001    0.6766249999999999 Pd
   0.1766250000000000    0.1766250000000000    0.1766250000000000 Pd
   0.7261790000000000    0.3749970000000000    0.0151130000000000 Pd
   0.3749970000000002    0.0151130000000000    0.7261789999999999 Pd
   0.0151129999999999    0.7261789999999999    0.3749970000000000 Pd
   0.8749970000000000    0.2261790000000000    0.5151130000000000 Pd
   0.2261790000000002    0.5151130000000000    0.8749970000000000 Pd
   0.5151130000000000    0.8749969999999999    0.2261790000000000 Pd
   0.3949090000000000    0.7129670000000001    0.0860570000000000 Pd
   0.7129670000000000    0.0860569999999999    0.3949090000000000 Pd
   0.0860570000000002    0.3949090000000002    0.7129669999999999 Pd
   0.2129670000000000    0.8949089999999998    0.5860569999999999 Pd
   0.8949090000000000    0.5860570000000001    0.2129670000000000 Pd
   0.5860570000000003    0.2129670000000000    0.8949089999999998 Pd
   0.3657400000000001    0.3657400000000000    0.3657400000000000 Pd
   0.8657400000000003    0.8657400000000002    0.8657399999999998 Pd
   0.7366240000000002    0.7366240000000002    0.7366239999999998 Pd
   0.2366240000000000    0.2366240000000000    0.2366240000000000 Pd
   0.7979940000000000    0.4128080000000000    0.0951960000000000 Pd
   0.4128080000000002    0.0951960000000001    0.7979940000000000 Pd
   0.0951959999999999    0.7979940000000000    0.4128080000000000 Pd
   0.9128080000000002    0.2979940000000001    0.5951959999999998 Pd
   0.2979940000000003    0.5951960000000002    0.9128079999999998 Pd
   0.5951960000000001    0.9128080000000001    0.2979940000000000 Pd
