Dy1 In3
1.0
   4.6449309999999997    0.0000000000000000    0.0000000000000000
   0.0000000000000000    4.6449309999999997    0.0000000000000000
   0.0000000000000000    0.0000000000000000    4.6449309999999997
Dy In
1 3
direct
   0.0000000000000000    0.0000000000000000    0.0000000000000000 Dy
   0.5000000000000000    0.0000000000000000    0.5000000000000000 In
   0.0000000000000000    0.5000000000000000    0.5000000000000000 In
   0.5000000000000000    0.5000000000000000    0.0000000000000000 In
