Tl3 Si1
1.0
  -2.5992489999999999    2.5992489999999999    4.0602570000000000
   2.5992489999999999   -2.5992489999999999    4.0602570000000000
   2.5992489999999999    2.5992489999999999   -4.0602570000000000
Tl Si
3 1
direct
   0.7500000000000000    0.2500000000000001    0.5000000000000000 Tl
   0.2500000000000001    0.7500000000000000    0.5000000000000000 Tl
   0.5000000000000000    0.5000000000000000    0.0000000000000000 Tl
   0.0000000000000000    0.0000000000000000    0.0000000000000000 Si
