In8 Br14
1.0
  16.0334900000000005   -3.9083730000000001    0.0000000000000000
  16.0334900000000005    3.9083730000000001    0.0000000000000000
  15.0807739999999999    0.0000000000000000    6.7021240000000004
In Br
8 14
direct
   0.1510580000000000    0.1510580000000000    0.1510580000000000 In
   0.7081599999999999    0.7081599999999999    0.7081600000000001 In
   0.4170640000000000    0.4170640000000000    0.4170640000000000 In
   0.4999999999999999    0.4999999999999999    0.5000000000000000 In
   0.5829359999999999    0.5829359999999999    0.5829360000000000 In
   0.2918399999999999    0.2918400000000000    0.2918400000000000 In
   0.0000000000000000    0.0000000000000000    0.0000000000000000 In
   0.8489420000000000    0.8489420000000000    0.8489420000000000 In
   0.1391259999999998    0.6309720000000000    0.6309720000000000 Br
   0.0969439999999999    0.6276940000000001    0.0969440000000000 Br
   0.0969440000000000    0.0969440000000000    0.6276940000000000 Br
   0.3690280000000000    0.3690280000000000    0.8608740000000001 Br
   0.3723059999999997    0.9030560000000000    0.9030560000000000 Br
   0.6309719999999999    0.1391259999999999    0.6309720000000000 Br
   0.6309719999999999    0.6309720000000000    0.1391260000000000 Br
   0.9030559999999997    0.3723060000000000    0.9030560000000000 Br
   0.6547489999999998    0.6547489999999999    0.6547490000000000 Br
   0.6276940000000000    0.0969440000000000    0.0969440000000000 Br
   0.9030560000000000    0.9030560000000002    0.3723060000000001 Br
   0.8608740000000000    0.3690280000000001    0.3690280000000001 Br
   0.3452510000000000    0.3452510000000000    0.3452510000000000 Br
   0.3690280000000000    0.8608740000000000    0.3690280000000001 Br
