Tb4 Mg8
1.0
   3.0364870000000002   -5.2593500000000004    0.0000000000000000
   3.0364870000000002    5.2593500000000004    0.0000000000000000
   0.0000000000000000    0.0000000000000000    9.8042479999999994
Tb Mg
4 8
direct
   0.3333330000000000    0.6666670000000000    0.0645430000000000 Tb
   0.6666670000000000    0.3333330000000000    0.5645430000000000 Tb
   0.6666670000000000    0.3333330000000000    0.9354570000000000 Tb
   0.3333330000000000    0.6666670000000000    0.4354570000000000 Tb
   0.0000000000000000    0.0000000000000000    0.0000000000000000 Mg
   0.0000000000000000    0.0000000000000000    0.5000000000000000 Mg
   0.8289610000000001    0.6579230000000000    0.2500000000000000 Mg
   0.1710389999999999    0.8289609999999999    0.7499999999999999 Mg
   0.6579230000000000    0.8289610000000001    0.7499999999999999 Mg
   0.3420770000000000    0.1710390000000000    0.2500000000000000 Mg
   0.8289609999999999    0.1710389999999999    0.2500000000000000 Mg
   0.1710390000000000    0.3420770000000000    0.7499999999999999 Mg
