Sn6 N8
1.0
   0.0000000000000000    4.5712240000000000    4.5712240000000000
   4.5712240000000000    0.0000000000000000    4.5712240000000000
   4.5712240000000000    4.5712240000000000    0.0000000000000000
Sn N
6 8
direct
   0.1250000000000000    0.1250000000000000    0.1250000000000000 Sn
   0.6250000000000000    0.1250000000000000    0.1250000000000000 Sn
   0.1250000000000000    0.1250000000000000    0.6250000000000000 Sn
   0.1250000000000000    0.6250000000000000    0.1250000000000000 Sn
   0.7499999999999999    0.7499999999999999    0.7499999999999999 Sn
   0.4999999999999999    0.5000000000000000    0.5000000000000000 Sn
   0.8840650000000000    0.3478049999999999    0.8840649999999999 N
   0.3659350000000000    0.3659350000000000    0.9021949999999997 N
   0.3659350000000000    0.3659350000000000    0.3659350000000000 N
   0.9021949999999999    0.3659350000000000    0.3659350000000000 N
   0.8840650000000000    0.8840649999999999    0.8840649999999999 N
   0.3478049999999999    0.8840649999999999    0.8840649999999999 N
   0.3659350000000000    0.9021949999999999    0.3659350000000000 N
   0.8840649999999999    0.8840649999999999    0.3478049999999999 N
