Er4 Fe34
1.0
   4.2541950000000002   -7.3684820000000002    0.0000000000000000
   4.2541950000000002    7.3684820000000002    0.0000000000000000
   0.0000000000000000    0.0000000000000000    8.1816350000000000
Er Fe
4 34
direct
   0.0000000000000000    0.0000000000000000    0.2500000000000000 Er
   0.0000000000000000    0.0000000000000000    0.7500000000000000 Er
   0.3333329999999999    0.6666670000000000    0.7500000000000000 Er
   0.6666670000000000    0.3333329999999999    0.2500000000000000 Er
   0.3333329999999999    0.6666670000000000    0.3949520000000001 Fe
   0.6666670000000000    0.3333329999999999    0.6050480000000001 Fe
   0.6666670000000000    0.3333329999999999    0.8949520000000000 Fe
   0.3333329999999999    0.6666670000000000    0.1050480000000000 Fe
   0.5000000000000000    0.5000000000000000    0.5000000000000000 Fe
   0.5000000000000000   -0.0000000000000000    0.5000000000000000 Fe
  -0.0000000000000000    0.5000000000000000    0.5000000000000000 Fe
   0.5000000000000000    0.5000000000000000    0.0000000000000000 Fe
   0.5000000000000000   -0.0000000000000000    0.0000000000000000 Fe
  -0.0000000000000000    0.5000000000000000    0.0000000000000000 Fe
   0.3293620000000000    0.3676829999999999    0.2500000000000000 Fe
   0.6323170000000000    0.9616790000000000    0.2500000000000000 Fe
   0.0383209999999999    0.6706380000000000    0.2500000000000000 Fe
   0.6323169999999999    0.6706380000000000    0.2500000000000000 Fe
   0.0383210000000000    0.3676830000000000    0.2500000000000000 Fe
   0.3293620000000000    0.9616790000000000    0.2500000000000000 Fe
   0.6706380000000000    0.6323169999999999    0.7500000000000000 Fe
   0.3676830000000000    0.0383210000000000    0.7500000000000000 Fe
   0.9616790000000000    0.3293620000000000    0.7500000000000000 Fe
   0.3676829999999999    0.3293620000000000    0.7500000000000000 Fe
   0.9616790000000000    0.6323170000000000    0.7500000000000000 Fe
   0.6706380000000000    0.0383209999999999    0.7500000000000000 Fe
   0.1659170000000000    0.8340830000000000    0.5167360000000000 Fe
   0.1659170000000000    0.3318340000000000    0.5167360000000000 Fe
   0.6681660000000001    0.8340830000000000    0.5167360000000000 Fe
   0.8340830000000000    0.1659170000000000    0.4832640000000001 Fe
   0.8340830000000000    0.6681660000000001    0.4832640000000001 Fe
   0.3318340000000000    0.1659170000000000    0.4832640000000001 Fe
   0.8340830000000000    0.1659170000000000    0.0167360000000000 Fe
   0.8340830000000000    0.6681660000000001    0.0167360000000000 Fe
   0.3318340000000000    0.1659170000000000    0.0167360000000000 Fe
   0.1659170000000000    0.8340830000000000    0.9832640000000000 Fe
   0.1659170000000000    0.3318340000000000    0.9832640000000000 Fe
   0.6681660000000001    0.8340830000000000    0.9832640000000000 Fe
