Mg10 Si18
1.0
   5.7158449999999998    0.0000000000000000    0.0000000000000000
   1.7420370000000001    6.4859369999999998    0.0000000000000000
   1.7583610000000001    1.2752859999999999   13.5819969999999994
Mg Si
10 18
direct
   0.0171510000000000    0.5264269999999999    0.6992990000000000 Mg
   0.0378120000000000    0.1382200000000000    0.3992380000000000 Mg
   0.5985409999999998    0.8639120000000000    0.5364920000000000 Mg
   0.4981059999999999    0.2498059999999999    0.3736160000000000 Mg
   0.6398330000000000    0.3300670000000000    0.5971010000000001 Mg
   0.1581370000000001    0.6375990000000000    0.4661600000000000 Mg
   0.9444460000000001    0.4010329999999999    0.0113560000000000 Mg
   0.1505650000000000    0.7361999999999997    0.8781080000000000 Mg
   0.4833979999999999    0.1870410000000000    0.1584070000000000 Mg
   0.3964489999999999    0.0027610000000000    0.9819780000000001 Mg
   0.2453480000000000    0.6317589999999998    0.0970290000000000 Si
   0.6886119999999999    0.6952289999999999    0.8704740000000000 Si
   0.9094500000000001    0.8606520000000000    0.3049590000000000 Si
   0.3014530000000000    0.9934889999999997    0.7097660000000000 Si
   0.4792120000000000    0.8519650000000000    0.3152970000000000 Si
   0.7201230000000000    0.0429650000000000    0.7759429999999999 Si
   0.8010260000000000    0.3920250000000000    0.2254660000000000 Si
   0.3713629999999999    0.3297220000000000    0.8233620000000000 Si
   0.0428270000000000    0.0745650000000000    0.1608830000000000 Si
   0.9819080000000000    0.9514609999999998    0.6141240000000000 Si
   0.0305910000000000    0.1566640000000000    0.8499749999999999 Si
   0.8845110000000000    0.8962719999999998    0.0495350000000000 Si
   0.1297720000000001    0.5059579999999999    0.2691400000000000 Si
   0.5229140000000000    0.6327480000000000    0.7239600000000002 Si
   0.5846499999999999    0.7235169999999999    0.1533840000000000 Si
   0.4774129999999999    0.4027709999999999    0.9759800000000000 Si
   0.2138260000000000    0.2272300000000000    0.5582740000000000 Si
   0.6905000000000002    0.5580450000000000    0.4205270000000000 Si
