Mg5 Sb1
1.0
   1.6292690000000001    5.8640509999999999    0.0000000000000000
  -1.6292690000000001    5.8640509999999999    0.0000000000000000
   0.0000000000000000    2.1856339999999999    7.3585969999999996
Mg Sb
5 1
direct
   0.9984870000000000    0.9984870000000000    0.9969279999999999 Mg
   0.3333010000000000    0.3333010000000000    0.3321250000000000 Mg
   0.9437440000000000    0.9437440000000000    0.6112930000000000 Mg
   0.6688220000000000    0.6688220000000000    0.6684209999999999 Mg
   0.2798480000000000    0.2798480000000000    0.9423769999999999 Mg
   0.6091320000000000    0.6091320000000000    0.2821890000000000 Sb
