Si24 O48
1.0
  -4.2322970000000000    7.2918779999999996   10.3110199999999992
   4.2322970000000000   -7.2918779999999996   10.3110199999999992
   4.2322970000000000    7.2918779999999996  -10.3110199999999992
Si O
24 48
direct
   0.6256809999999999    0.8736290000000001    0.3790499999999999 Si
   0.2318300000000001    0.8661730000000001    0.7429429999999999 Si
   0.7621210000000000    0.3303550000000000    0.0682340000000000 Si
   0.3795539999999999    0.9429950000000000    0.0634410000000000 Si
   0.0054210000000000    0.1263710000000000    0.2520520000000000 Si
   0.6256809999999999    0.2466320000000000    0.7520519999999999 Si
   0.2378790000000000    0.3061130000000001    0.5682339999999999 Si
   0.6204459999999999    0.6838879999999999    0.5634409999999999 Si
   0.6232300000000000    0.8661730000000000    0.1343440000000000 Si
   0.6232300000000000    0.4888870000000000    0.7570570000000000 Si
   0.7621209999999999    0.6938869999999999    0.4317659999999999 Si
   0.3743189999999999    0.1263710000000000    0.6209499999999999 Si
   0.7681699999999999    0.5111130000000000    0.6343440000000000 Si
   0.6204459999999999    0.0570050000000000    0.9365589999999998 Si
   0.3743189999999999    0.7533679999999999    0.2479480000000000 Si
   0.2318299999999999    0.4888870000000000    0.3656559999999999 Si
   0.3767699999999998    0.1338270000000000    0.8656559999999999 Si
   0.3795540000000000    0.3161120000000000    0.4365589999999999 Si
   0.9945790000000000    0.2466320000000000    0.1209500000000000 Si
   0.9945789999999999    0.8736289999999999    0.7479479999999998 Si
   0.2378789999999999    0.6696450000000000    0.9317659999999999 Si
   0.7681700000000000    0.1338270000000001    0.2570570000000000 Si
   0.3767700000000000    0.5111130000000000    0.2429430000000000 Si
   0.0054209999999999    0.7533680000000000    0.8790499999999999 Si
   0.2833620000000000    0.6559010000000000    0.0526179999999999 O
   0.7166379999999998    0.3440990000000000    0.9473819999999998 O
   0.2811849999999999    0.0000000000000001    0.7811849999999999 O
   0.6426779999999999    0.3490590000000000    0.7352749999999999 O
   0.7363800000000000    0.4863800000000000    0.2500000000000000 O
   0.6014359999999999    0.8514360000000001    0.7500000000000000 O
   0.5005389999999998    0.5682630000000000    0.3885030000000000 O
   0.1032829999999999    0.2307440000000000    0.4473819999999999 O
   0.3651389999999999    0.3277350000000000    0.0374040000000000 O
   0.3573219999999999    0.0925970000000000    0.7063809999999999 O
   0.4994609999999999    0.4317369999999999    0.6114970000000000 O
   0.7903299999999999    0.3277349999999999    0.4625960000000000 O
   0.6450599999999997    0.0548810000000000    0.5901799999999999 O
   0.2833619999999999    0.2307440000000000    0.6274610000000000 O
   0.8862159999999999    0.0925970000000000    0.2352750000000000 O
   0.9647009999999999    0.0548809999999999    0.9098200000000000 O
   0.1032829999999998    0.6559009999999998    0.8725389999999998 O
   0.7188150000000000    0.0000000000000001    0.2188150000000000 O
   0.2811850000000000    0.5000000000000000    0.2811850000000000 O
   0.8862159999999999    0.6509410000000000    0.7936189999999997 O
   0.4994610000000000    0.8879640000000000    0.0677240000000000 O
   0.7166379999999999    0.7692560000000001    0.3725390000000000 O
   0.3007610000000001    0.8490940000000001    0.0483340000000000 O
   0.4999999999999999    0.2392430000000000    0.7392429999999999 O
   0.8967169999999999    0.7692560000000001    0.5526180000000001 O
   0.3549399999999999    0.9451190000000000    0.4098199999999999 O
   0.3985640000000000    0.1485640000000000    0.2500000000000000 O
  -0.0000000000000001    0.7607570000000000    0.7607569999999999 O
  -0.0000000000000000    0.2392430000000000    0.2392430000000000 O
   0.6992389999999999    0.1509060000000000    0.9516659999999999 O
   0.3007609999999999    0.2524270000000000    0.4516660000000000 O
   0.8967170000000000    0.3440990000000000    0.1274610000000000 O
   0.6426779999999999    0.9074030000000000    0.2936189999999999 O
   0.6797599999999999    0.5682629999999999    0.5677239999999999 O
   0.5000000000000000    0.7607570000000000    0.2607570000000000 O
   0.6348609999999999    0.6722650000000000    0.9625959999999999 O
   0.2096699999999999    0.6722650000000000    0.5374039999999999 O
   0.0352990000000001    0.9451190000000000    0.0901800000000000 O
   0.2636200000000000    0.5136200000000000    0.7500000000000000 O
   0.3573219999999999    0.6509409999999999    0.2647249999999999 O
   0.3202400000000000    0.4317370000000000    0.4322760000000000 O
   0.1137839999999999    0.9074030000000000    0.7647249999999999 O
   0.1137840000000000    0.3490590000000000    0.2063810000000000 O
   0.7188149999999999    0.5000000000000000    0.7188149999999999 O
   0.6992389999999999    0.7475730000000000    0.5483340000000000 O
   0.6797600000000000    0.1120360000000000    0.1114970000000000 O
   0.5005390000000000    0.1120360000000000    0.9322760000000000 O
   0.3202400000000000    0.8879640000000002    0.8885030000000000 O
