Sc3 Al1
1.0
   4.4298909999999996    0.0000000000000000    0.0000000000000000
   0.0000000000000000    4.4298909999999996    0.0000000000000000
   0.0000000000000000    0.0000000000000000    4.4298909999999996
Sc Al
3 1
direct
   0.5000000000000000    0.0000000000000000    0.5000000000000000 Sc
   0.0000000000000000    0.5000000000000000    0.5000000000000000 Sc
   0.5000000000000000    0.5000000000000000    0.0000000000000000 Sc
   0.0000000000000000    0.0000000000000000    0.0000000000000000 Al
