Hf6 F24
1.0
   4.9759149999999996    5.9130120000000002    0.0000000000000000
  -4.9759149999999996    5.9130120000000002    0.0000000000000000
   0.0000000000000000    4.5276990000000001    6.2545299999999999
Hf F
6 24
direct
   0.7858730000000002    0.2141270000000000    0.7500000000000000 Hf
   0.2141270000000000    0.7858730000000000    0.2500000000000000 Hf
   0.2235190000000001    0.3659550000000001    0.8331700000000000 Hf
   0.6340450000000001    0.7764810000000002    0.6668300000000000 Hf
   0.7764810000000000    0.6340450000000000    0.1668300000000000 Hf
   0.3659550000000000    0.2235190000000000    0.3331700000000000 Hf
   0.3170570000000000    0.2584480000000000    0.6065960000000000 F
   0.7415520000000000    0.6829430000000001    0.8934040000000000 F
   0.6829430000000000    0.7415520000000000    0.3934040000000000 F
   0.2584480000000000    0.3170570000000000    0.1065960000000000 F
   0.8156170000000000    0.4021270000000000    0.4241900000000001 F
   0.5978730000000000    0.1843830000000000    0.0758100000000000 F
   0.6063990000000001    0.3936010000000000    0.2500000000000000 F
   0.3936010000000000    0.6063990000000000    0.7500000000000000 F
   0.2611840000000000    0.5024650000000001    0.2826680000000000 F
   0.4975350000000001    0.7388160000000001    0.2173320000000000 F
   0.7388160000000001    0.4975350000000002    0.7173320000000000 F
   0.5024650000000001    0.2611840000000000    0.7826680000000001 F
   0.0299860000000000    0.7236669999999998    0.1499730000000000 F
   0.2763330000000002    0.9700140000000000    0.3500270000000000 F
   0.9700140000000002    0.2763330000000000    0.8500270000000001 F
   0.7236669999999998    0.0299860000000000    0.6499730000000000 F
   0.0000000000000000    0.5000000000000000    0.0000000000000000 F
   0.5000000000000000    0.0000000000000000    0.5000000000000000 F
   0.1725310000000000    0.0626130000000000    0.0441840000000000 F
   0.9373870000000000    0.8274690000000000    0.4558160000000000 F
   0.8274690000000001    0.9373870000000001    0.9558160000000000 F
   0.0626130000000000    0.1725310000000000    0.5441840000000000 F
   0.4021270000000001    0.8156170000000003    0.9241900000000000 F
   0.1843830000000000    0.5978730000000000    0.5758100000000000 F
