H3 Pd4
1.0
   9.4887770000000007   -1.4533160000000001    0.0000000000000000
   9.4887770000000007    1.4533160000000001    0.0000000000000000
   9.2661850000000001    0.0000000000000000    2.5073560000000001
H Pd
3 4
direct
   0.2596510000000001    0.2596510000000001    0.2596510000000000 H
   0.5000000000000000    0.5000000000000000    0.5000000000000000 H
   0.7403489999999999    0.7403489999999999    0.7403490000000000 H
   0.1248050000000000    0.1248050000000000    0.1248050000000000 Pd
   0.8751950000000001    0.8751950000000001    0.8751949999999998 Pd
   0.3741900000000001    0.3741900000000001    0.3741900000000000 Pd
   0.6258100000000000    0.6258100000000000    0.6258100000000000 Pd
