Nd3 Hg1
1.0
  -2.4318469999999999    2.4318469999999999    5.1154780000000004
   2.4318469999999999   -2.4318469999999999    5.1154780000000004
   2.4318469999999999    2.4318469999999999   -5.1154780000000004
Nd Hg
3 1
direct
   0.7500000000000001    0.2499999999999999    0.5000000000000000 Nd
   0.2499999999999999    0.7500000000000000    0.5000000000000001 Nd
   0.4999999999999999    0.4999999999999999    0.0000000000000000 Nd
   0.0000000000000000    0.0000000000000000    0.0000000000000000 Hg
