Eu2 Be26
1.0
   0.0000000000000000    5.2415490000000000    5.2415490000000000
   5.2415490000000000    0.0000000000000000    5.2415490000000000
   5.2415500000000002    5.2415490000000000    0.0000000000000000
Eu Be
2 26
direct
   0.2500000000000000    0.2500000000000000    0.2500000000000000 Eu
   0.7499999999999999    0.7500000000000000    0.7499999999999999 Eu
   0.4999999999999999    0.4999999999999999    0.5000000000000000 Be
   0.0000000000000000    0.0000000000000000    0.0000000000000000 Be
   0.7872029999999999    0.5639780000000000    0.2127970000000000 Be
   0.2127969999999998    0.4360220000000001    0.7872030000000001 Be
   0.5639779999999999    0.7872030000000000    0.4360220000000000 Be
   0.4360219999999999    0.2127970000000000    0.5639780000000000 Be
   0.2872029999999998    0.9360220000000001    0.7127970000000001 Be
   0.7127969999999999    0.0639780000000000    0.2872029999999999 Be
   0.9360219999999999    0.2872030000000000    0.0639779999999999 Be
   0.0639779999999999    0.7127970000000000    0.9360220000000000 Be
   0.2127969999999998    0.7872030000000001    0.5639779999999999 Be
   0.7872030000000000    0.2127969999999999    0.4360220000000000 Be
   0.4360220000000000    0.5639780000000000    0.7872030000000001 Be
   0.5639779999999998    0.4360220000000001    0.2127970000000000 Be
   0.7127970000000000    0.2872029999999999    0.9360220000000001 Be
   0.2872029999999999    0.7127970000000000    0.0639780000000000 Be
   0.0639780000000000    0.9360219999999999    0.2872029999999999 Be
   0.9360219999999999    0.0639780000000000    0.7127970000000001 Be
   0.5639779999999998    0.2127970000000000    0.7872030000000000 Be
   0.4360220000000000    0.7872030000000000    0.2127970000000000 Be
   0.7872029999999999    0.4360220000000001    0.5639779999999999 Be
   0.2127969999999999    0.5639780000000000    0.4360220000000001 Be
   0.9360220000000000    0.7127970000000000    0.2872030000000000 Be
   0.0639780000000000    0.2872029999999999    0.7127970000000000 Be
   0.2872029999999999    0.0639780000000000    0.9360220000000001 Be
   0.7127969999999999    0.9360220000000001    0.0639780000000000 Be
