Na1 Ga4
1.0
  -2.1385010000000002    2.1385010000000002    5.6559629999999999
   2.1385010000000002   -2.1385010000000002    5.6559629999999999
   2.1385010000000002    2.1385010000000002   -5.6559629999999999
Na Ga
1 4
direct
   0.0000000000000000    0.0000000000000000    0.0000000000000000 Na
   0.2499999999999999    0.7500000000000001    0.5000000000000001 Ga
   0.6105500000000000    0.6105500000000000    0.0000000000000000 Ga
   0.7500000000000001    0.2499999999999999    0.5000000000000000 Ga
   0.3894500000000000    0.3894500000000000    0.0000000000000000 Ga
