Sr1 Zn5
1.0
   2.7990849999999998   -4.8481569999999996    0.0000000000000000
   2.7990849999999998    4.8481569999999996    0.0000000000000000
   0.0000000000000000    0.0000000000000000    4.2369770000000004
Sr Zn
1 5
direct
   0.0000000000000000    0.0000000000000000    0.0000000000000000 Sr
   0.6666670000000000    0.3333330000000000    0.0000000000000000 Zn
   0.5000000000000000   -0.0000000000000000    0.5000000000000000 Zn
   0.5000000000000000    0.5000000000000000    0.5000000000000000 Zn
  -0.0000000000000000    0.5000000000000000    0.5000000000000000 Zn
   0.3333330000000000    0.6666670000000000    0.0000000000000000 Zn
