Zr6 Sb6
1.0
   1.9086700000000001   -5.2729489999999997    0.0000000000000000
   1.9086700000000001    5.2729489999999997    0.0000000000000000
   0.0000000000000000    0.0000000000000000   14.2126579999999993
Zr Sb
6 6
direct
   0.6190669999999999    0.3809330000000001    0.7500000000000001 Zr
   0.3809329999999999    0.6190670000000001    0.2500000000000000 Zr
   0.9287519999999999    0.0712480000000000    0.8917780000000001 Zr
   0.0712479999999998    0.9287520000000002    0.1082220000000000 Zr
   0.0712479999999998    0.9287520000000002    0.3917780000000001 Zr
   0.9287519999999999    0.0712480000000000    0.6082220000000000 Zr
   0.3309069999999998    0.6690930000000002    0.7500000000000001 Sb
   0.6690929999999998    0.3309070000000001    0.2500000000000000 Sb
   0.3573059999999998    0.6426940000000001    0.4508820000000000 Sb
   0.6426939999999999    0.3573060000000001    0.5491180000000001 Sb
   0.6426939999999999    0.3573060000000001    0.9508820000000000 Sb
   0.3573059999999998    0.6426940000000001    0.0491180000000000 Sb
