W4 O12
1.0
  -3.8080039999999999    3.8080039999999999    3.8080039999999999
   3.8080039999999999   -3.8080039999999999    3.8080039999999999
   3.8080039999999999    3.8080039999999999   -3.8080039999999999
W O
4 12
direct
   0.5000000000000000    0.0000000000000000    0.0000000000000000 W
   0.0000000000000000    0.5000000000000000   -0.0000000000000000 W
   0.5000000000000000    0.5000000000000000    0.5000000000000000 W
  -0.0000000000000000   -0.0000000000000000    0.5000000000000000 W
   0.9404429999999999    0.7218750000000000    0.2185670000000000 O
   0.2781250000000001    0.7814330000000000    0.0595570000000000 O
   0.4966920000000000    0.2781250000000000    0.2185670000000000 O
   0.7814330000000000    0.0595570000000000    0.2781250000000000 O
   0.7218750000000000    0.7814329999999999    0.5033080000000000 O
   0.2185670000000000    0.4966920000000000    0.2781250000000000 O
   0.7814330000000000    0.5033080000000000    0.7218750000000002 O
   0.2781250000000000    0.2185670000000000    0.4966920000000000 O
   0.2185670000000000    0.9404430000000000    0.7218750000000002 O
   0.5033080000000000    0.7218750000000002    0.7814330000000000 O
   0.7218750000000002    0.2185670000000000    0.9404430000000000 O
   0.0595570000000000    0.2781250000000001    0.7814330000000000 O
