Y2 Fe17
1.0
   4.7924759999999997   -4.2541460000000004    0.0000000000000000
   4.7924759999999997    4.2541460000000004    0.0000000000000000
   1.0161890000000000    0.0000000000000000    6.3271590000000000
Y Fe
2 17
direct
   0.6591710000000000    0.6591710000000000    0.6591709999999998 Y
   0.3408290000000000    0.3408290000000000    0.3408289999999999 Y
   0.0000000000000000    0.0000000000000000    0.4999999999999999 Fe
   0.5000000000000000    0.0000000000000000    0.0000000000000000 Fe
   0.0000000000000000    0.5000000000000000    0.0000000000000000 Fe
   0.7074980000000000    0.2925020000000000    0.0000000000000000 Fe
   0.0000000000000000    0.7074980000000000    0.2925020000000000 Fe
   0.2925020000000000    0.0000000000000000    0.7074980000000000 Fe
   0.0000000000000000    0.2925020000000000    0.7074980000000000 Fe
   0.7074980000000000    0.0000000000000000    0.2925020000000000 Fe
   0.2925020000000000    0.7074980000000000    0.0000000000000000 Fe
   0.3434810000000000    0.3434810000000000    0.8456250000000000 Fe
   0.8456250000000000    0.3434810000000001    0.3434810000000000 Fe
   0.3434810000000001    0.8456250000000000    0.3434810000000000 Fe
   0.6565190000000000    0.6565190000000000    0.1543750000000000 Fe
   0.1543750000000000    0.6565190000000000    0.6565189999999999 Fe
   0.6565190000000000    0.1543750000000000    0.6565189999999999 Fe
   0.9036120000000000    0.9036120000000000    0.9036119999999999 Fe
   0.0963880000000000    0.0963880000000000    0.0963880000000000 Fe
