B9 N1
1.0
  -7.0295620000000003    7.0295620000000003    4.3853299999999997
   7.0295620000000003   -7.0295620000000003    4.3853299999999997
   7.0295620000000003    7.0295620000000003   -4.3853299999999997
B N
9 1
direct
   0.0000000000000000    0.5574410000000000    0.5574410000000000 B
   0.0000000000000000    0.4425590000000000    0.4425590000000000 B
   0.4425590000000000    0.0000000000000000    0.4425590000000000 B
   0.5574410000000000    0.0000000000000000    0.5574410000000000 B
   0.6582260000000000    0.1582260000000000    0.5000000000000000 B
   0.3417740000000000    0.8417740000000000    0.4999999999999999 B
   0.8417740000000000    0.3417740000000000    0.4999999999999999 B
   0.1582260000000000    0.6582260000000000    0.5000000000000000 B
   0.0000000000000000    0.0000000000000000    0.0000000000000000 B
   0.5000000000000000    0.5000000000000000    0.0000000000000000 N
