Mg4 Si8
1.0
   2.2666320000000000    4.6162850000000004    0.0000000000000000
  -2.2666320000000000    4.6162850000000004    0.0000000000000000
   0.0000000000000000    3.5768640000000000    9.9124949999999998
Mg Si
4 8
direct
   0.4257140000000000    0.4257140000000000    0.7369970000000000 Mg
   0.5000000000000000    0.5000000000000000    0.0000000000000000 Mg
   0.5742860000000000    0.5742860000000000    0.2630030000000000 Mg
   0.0000000000000000    0.0000000000000000    0.5000000000000000 Mg
   0.8213870000000001    0.8213870000000001    0.9719199999999999 Si
   0.7293090000000000    0.7293090000000000    0.7431290000000000 Si
   0.3100140000000001    0.3100140000000001    0.4797240000000000 Si
   0.2706910000000000    0.2706910000000000    0.2568710000000000 Si
   0.1056850000000000    0.1056850000000000    0.8225789999999999 Si
   0.1786130000000000    0.1786130000000000    0.0280800000000000 Si
   0.8943150000000000    0.8943150000000000    0.1774210000000000 Si
   0.6899860000000000    0.6899860000000000    0.5202760000000000 Si
