Ti3 Ag1
1.0
   4.0988069999999999    0.0000000000000000    0.0000000000000000
   0.0000000000000000    4.0988069999999999    0.0000000000000000
   0.0000000000000000    0.0000000000000000    4.0988069999999999
Ti Ag
3 1
direct
   0.5000000000000000    0.5000000000000000    0.0000000000000000 Ti
   0.5000000000000000    0.0000000000000000    0.5000000000000000 Ti
   0.0000000000000000    0.5000000000000000    0.5000000000000000 Ti
   0.0000000000000000    0.0000000000000000    0.0000000000000000 Ag
