Ni3 Cl4
1.0
   3.5233279999999998   -4.8824709999999998    0.0000000000000000
   3.5233279999999998    4.8824709999999998    0.0000000000000000
   0.0000000000000000    0.0000000000000000    3.5310649999999999
Ni Cl
3 4
direct
   0.5000000000000000   -0.0000000000000000    0.5000000000000000 Ni
  -0.0000000000000000    0.5000000000000000    0.5000000000000000 Ni
   0.5000000000000000    0.5000000000000000    0.0000000000000000 Ni
   0.7343210000000000    0.7343210000000000    0.5000000000000000 Cl
   0.2656790000000000    0.2656790000000000    0.5000000000000000 Cl
   0.7508290000000000    0.2491710000000000    0.0000000000000000 Cl
   0.2491710000000000    0.7508290000000000    0.0000000000000000 Cl
