Sn4 O8
1.0
   4.7929779999999997    0.0000000000000000    0.0000000000000000
   0.0000000000000000    5.3134069999999998    0.0000000000000000
   0.0000000000000000    0.0000000000000000    5.8308499999999999
Sn O
4 8
direct
   0.5000000000000000    0.7500000000000000    0.6650960000000000 Sn
   0.0000000000000000    0.2500000000000000    0.8349040000000000 Sn
   0.5000000000000000    0.2500000000000000    0.3349040000000000 Sn
   0.0000000000000000    0.7500000000000000    0.1650960000000000 Sn
   0.7301650000000000    0.0782410000000000    0.6070370000000000 O
   0.2301650000000000    0.9217590000000000    0.8929630000000000 O
   0.7698350000000002    0.5782409999999999    0.8929630000000000 O
   0.2698350000000000    0.4217590000000000    0.6070370000000000 O
   0.7301650000000000    0.5782409999999999    0.3929630000000001 O
   0.2301650000000000    0.4217590000000000    0.1070370000000000 O
   0.7698350000000002    0.0782410000000000    0.1070370000000000 O
   0.2698350000000000    0.9217590000000000    0.3929630000000001 O
