V6 O9
1.0
  -0.0000590000000000    3.0817630000000000    0.0000970000000000
  -6.8086310000000001    1.5410070000000000   -0.1331180000000000
  -1.3187050000000000    0.0002640000000000    7.5065179999999998
V O
6 9
direct
   0.0333440000000000    0.9333939999999997    0.8155100000000000 V
   0.6505799999999999    0.6988469999999999    0.4952260000000000 V
   0.6853589999999999    0.6292139999999999    0.1322530000000000 V
   0.3146460000000000    0.3707860000000000    0.8677470000000000 V
   0.3494240000000000    0.3011499999999999    0.5047760000000000 V
   0.9666280000000002    0.0666150000000000    0.1844890000000000 V
   0.5598200000000000    0.8802989999999999    0.6685930000000000 O
   0.1749409999999999    0.6500950000000002    0.9636990000000000 O
   0.1132460000000000    0.7735640000000000    0.2914980000000000 O
   0.2255290000000000    0.5489429999999998    0.6293919999999998 O
   0.7744710000000000    0.4510600000000000    0.3706090000000000 O
   0.8867550000000001    0.2264450000000000    0.7084950000000000 O
   0.8250670000000000    0.3498930000000000    0.0363050000000000 O
   0.4402030000000000    0.1196930000000000    0.3314150000000000 O
   0.4999860000000000    0.0000020000000000    0.9999920000000000 O
