Yb8 As6
1.0
  -4.4408570000000003    4.4408570000000003    4.4408570000000003
   4.4408570000000003   -4.4408570000000003    4.4408570000000003
   4.4408570000000003    4.4408570000000003   -4.4408570000000003
Yb As
8 6
direct
   0.1437990000000000    0.5000000000000000    0.0000000000000000 Yb
   0.5000000000000000   -0.0000000000000000    0.6437990000000000 Yb
   0.3562010000000000    0.3562010000000000    0.3562010000000000 Yb
  -0.0000000000000000    0.1437990000000000    0.5000000000000000 Yb
   0.8562010000000000    0.8562010000000000    0.8562010000000000 Yb
  -0.0000000000000000    0.6437990000000000    0.5000000000000000 Yb
   0.6437990000000000    0.5000000000000000    0.0000000000000000 Yb
   0.5000000000000000   -0.0000000000000000    0.1437990000000000 Yb
   0.8750000000000000    0.2500000000000001    0.1250000000000000 As
   0.1250000000000000    0.8750000000000000    0.2500000000000001 As
   0.3749999999999999    0.6250000000000000    0.7500000000000000 As
   0.2500000000000000    0.1249999999999999    0.8749999999999999 As
   0.7500000000000000    0.3750000000000000    0.6250000000000000 As
   0.6250000000000001    0.7500000000000000    0.3749999999999999 As
