Tb8 Au48
1.0
  10.5343719999999994    0.0000000000000000    0.0000000000000000
   0.0000000000000000   10.5343719999999994    0.0000000000000000
   0.0000000000000000    0.0000000000000000    9.9140429999999995
Tb Au
8 48
direct
   0.3257190000000000    0.8257190000000000    0.0377530000000000 Tb
   0.6742810000000000    0.8257190000000000    0.5377530000000000 Tb
   0.3257190000000000    0.1742810000000000    0.5377530000000000 Tb
   0.6742810000000000    0.1742810000000000    0.0377530000000000 Tb
   0.1742810000000000    0.6742810000000000    0.4622470000000000 Tb
   0.8257190000000000    0.6742810000000000    0.9622470000000000 Tb
   0.1742810000000000    0.3257190000000000    0.9622470000000000 Tb
   0.8257190000000000    0.3257190000000000    0.4622470000000000 Tb
   0.9302780000000000    0.7628830000000000    0.6705230000000000 Au
   0.0697220000000000    0.7628830000000000    0.1705230000000000 Au
   0.9302780000000000    0.2371170000000000    0.1705230000000000 Au
   0.0697220000000000    0.2371170000000000    0.6705230000000000 Au
   0.2628830000000000    0.4302780000000000    0.6705230000000000 Au
   0.2628830000000000    0.5697220000000000    0.1705230000000000 Au
   0.7371170000000000    0.4302780000000000    0.1705230000000000 Au
   0.7371170000000000    0.5697220000000000    0.6705230000000000 Au
   0.5697220000000000    0.7371170000000000    0.8294770000000000 Au
   0.4302780000000000    0.7371170000000000    0.3294770000000000 Au
   0.5697220000000000    0.2628830000000000    0.3294770000000000 Au
   0.4302780000000000    0.2628830000000000    0.8294770000000000 Au
   0.2371170000000000    0.0697220000000000    0.8294770000000000 Au
   0.2371170000000000    0.9302780000000000    0.3294770000000000 Au
   0.7628830000000000    0.0697220000000000    0.3294770000000000 Au
   0.7628830000000000    0.9302780000000000    0.8294770000000000 Au
   0.8732460000000000    0.0497840000000000    0.6055270000000000 Au
   0.1267540000000000    0.0497840000000000    0.1055270000000000 Au
   0.8732460000000000    0.9502159999999999    0.1055270000000000 Au
   0.1267540000000000    0.9502159999999999    0.6055270000000000 Au
   0.5497840000000001    0.3732460000000000    0.6055270000000000 Au
   0.5497840000000001    0.6267540000000000    0.1055270000000000 Au
   0.4502160000000000    0.3732460000000000    0.1055270000000000 Au
   0.4502160000000000    0.6267540000000000    0.6055270000000000 Au
   0.6267540000000000    0.4502160000000000    0.8944730000000000 Au
   0.3732460000000000    0.4502160000000000    0.3944730000000000 Au
   0.6267540000000000    0.5497840000000001    0.3944730000000000 Au
   0.3732460000000000    0.5497840000000001    0.8944730000000000 Au
   0.9502159999999999    0.1267540000000000    0.8944730000000000 Au
   0.9502159999999999    0.8732460000000000    0.3944730000000000 Au
   0.0497840000000000    0.1267540000000000    0.3944730000000000 Au
   0.0497840000000000    0.8732460000000000    0.8944730000000000 Au
   0.3966820000000000    0.8966820000000000    0.5707630000000000 Au
   0.6033180000000000    0.8966820000000000    0.0707630000000000 Au
   0.3966820000000000    0.1033180000000000    0.0707630000000000 Au
   0.6033180000000000    0.1033180000000000    0.5707630000000000 Au
   0.1033180000000000    0.6033180000000000    0.9292370000000000 Au
   0.8966820000000000    0.6033180000000000    0.4292370000000000 Au
   0.1033180000000000    0.3966820000000000    0.4292370000000000 Au
   0.8966820000000000    0.3966820000000000    0.9292370000000000 Au
   0.5000000000000000    0.0000000000000000    0.3172110000000000 Au
   0.5000000000000000    0.0000000000000000    0.8172109999999999 Au
   0.0000000000000000    0.5000000000000000    0.1827890000000000 Au
   0.0000000000000000    0.5000000000000000    0.6827890000000000 Au
   0.2500000000000000    0.7500000000000001    0.7500000000000000 Au
   0.7500000000000001    0.7500000000000001    0.2500000000000000 Au
   0.2500000000000000    0.2500000000000000    0.2500000000000000 Au
   0.7500000000000001    0.2500000000000000    0.7500000000000000 Au
