Fe8 O12
1.0
   5.0364620000000002    0.0000000000000000    0.0000000000000000
   0.0000000000000000    5.2654050000000003    0.0000000000000000
   0.0000000000000000    0.0000000000000000    7.7742389999999997
Fe O
8 12
direct
   0.5000000000000000    0.5000000000000000    0.5000000000000000 Fe
   0.0000000000000000    0.0000000000000000    0.0000000000000000 Fe
   0.5000000000000000    0.5000000000000000    0.0000000000000000 Fe
   0.0000000000000000    0.0000000000000000    0.5000000000000000 Fe
   0.9765010000000001    0.5616010000000000    0.7500000000000000 Fe
   0.4765010000000001    0.9383990000000000    0.2500000000000000 Fe
   0.0234990000000000    0.4383990000000000    0.2500000000000000 Fe
   0.5234990000000000    0.0616010000000000    0.7500000000000000 Fe
   0.1807530000000000    0.6839480000000000    0.4210140000000001 O
   0.6807530000000001    0.8160520000000000    0.9210140000000001 O
   0.8192470000000001    0.3160520000000000    0.5789860000000001 O
   0.3192470000000000    0.1839480000000000    0.0789860000000000 O
   0.1807530000000000    0.6839480000000000    0.0789860000000000 O
   0.6807530000000001    0.8160520000000000    0.5789860000000001 O
   0.8192470000000001    0.3160520000000000    0.9210140000000001 O
   0.3192470000000000    0.1839480000000000    0.4210140000000001 O
   0.6531380000000000    0.5816270000000000    0.2500000000000000 O
   0.1531380000000000    0.9183729999999999    0.7500000000000000 O
   0.3468620000000000    0.4183730000000000    0.7500000000000000 O
   0.8468620000000000    0.0816270000000000    0.2500000000000000 O
