Sr2 Pr6
1.0
   3.8649269999999998   -6.6942490000000001    0.0000000000000000
   3.8649269999999998    6.6942490000000001    0.0000000000000000
   0.0000000000000000    0.0000000000000000    6.1248110000000002
Sr Pr
2 6
direct
   0.3333330000000000    0.6666670000000000    0.7500000000000000 Sr
   0.6666670000000000    0.3333330000000000    0.2500000000000000 Sr
   0.1604010000000000    0.3208010000000001    0.2500000000000000 Pr
   0.6791990000000001    0.8395990000000000    0.2500000000000000 Pr
   0.1604010000000000    0.8395990000000000    0.2500000000000000 Pr
   0.8395990000000000    0.6791990000000001    0.7500000000000000 Pr
   0.3208010000000001    0.1604010000000000    0.7500000000000000 Pr
   0.8395990000000000    0.1604010000000000    0.7500000000000000 Pr
