Au2 I4
1.0
   4.1880839999999999    0.0000000000000000    0.0000000000000000
   0.0000000000000000    4.1880839999999999    0.0000000000000000
   0.0000000000000000    0.0000000000000000   15.6413899999999995
Au I
2 4
direct
   0.0000000000000000    0.0000000000000000    0.7500000000000000 Au
   0.0000000000000000    0.0000000000000000    0.2500000000000000 Au
   0.0000000000000000    0.5000000000000000    0.8626730000000001 I
   0.5000000000000000    0.0000000000000000    0.3626730000000000 I
   0.5000000000000000    0.0000000000000000    0.6373270000000001 I
   0.0000000000000000    0.5000000000000000    0.1373270000000000 I
