Sm20 Pd42
1.0
  -5.8490120000000001    0.0000000000000000    0.0000000000000000
   2.9234110000000002   12.5859360000000002    0.0000000000000000
  -0.0081510000000000   -0.2582920000000000  -16.7366029999999988
Sm Pd
20 42
direct
   0.5380389999999999    0.0687910000000000    0.2796510000000000 Sm
   0.3157070000000000    0.6289730000000000    0.1982170000000000 Sm
   0.4619610000000001    0.9312090000000001    0.7203490000000000 Sm
   0.4288710000000001    0.8576550000000001    0.0192490000000000 Sm
   0.7218509999999999    0.4483170000000000    0.0789430000000000 Sm
   0.2375940000000000    0.4734940000000000    0.6480900000000001 Sm
   0.2781490000000000    0.5516830000000000    0.9210570000000000 Sm
   0.1449100000000000    0.2909150000000000    0.3557280000000000 Sm
   0.6496729999999999    0.2972050000000000    0.5190990000000000 Sm
   0.8812730000000000    0.7615610000000000    0.8694350000000000 Sm
   0.0425970000000000    0.0849280000000000    0.5938639999999999 Sm
   0.3503270000000001    0.7027950000000001    0.4809010000000001 Sm
   0.9246390000000000    0.8516660000000001    0.1868660000000000 Sm
   0.5711289999999999    0.1423450000000000    0.9807509999999999 Sm
   0.0753610000000000    0.1483340000000000    0.8131340000000000 Sm
   0.9574030000000001    0.9150720000000000    0.4061360000000000 Sm
   0.1187270000000000    0.2384390000000000    0.1305650000000000 Sm
   0.7624060000000000    0.5265060000000001    0.3519100000000000 Sm
   0.6842930000000000    0.3710270000000001    0.8017830000000000 Sm
   0.8550899999999999    0.7090850000000001    0.6442720000000000 Sm
   0.0693180000000001    0.6688870000000001    0.0475440000000000 Pd
   0.1528020000000000    0.3024260000000000    0.5245820000000000 Pd
   0.3833760000000001    0.7666830000000000    0.8392909999999999 Pd
   0.0424530000000000    0.0767050000000000    0.2731140000000000 Pd
   0.3128609999999999    0.1141300000000000    0.4386560000000000 Pd
   0.6401910000000000    0.2824120000000001    0.3359390000000000 Pd
   0.6166239999999999    0.2333170000000000    0.1607090000000000 Pd
   0.7386000000000001    0.4760150000000001    0.6449650000000000 Pd
   0.9575470000000000    0.9232950000000000    0.7268860000000000 Pd
   0.3779510000000000    0.2550410000000001    0.6762860000000001 Pd
   0.2614000000000000    0.5239850000000000    0.3550350000000000 Pd
   0.0564330000000000    0.1158230000000000    0.9834150000000002 Pd
   0.8139120000000000    0.6249280000000000    0.1977540000000000 Pd
   0.8471980000000000    0.6975740000000000    0.4754180000000000 Pd
   0.7686740000000000    0.5387670000000001    0.9218229999999999 Pd
   0.2713320000000000    0.0315080000000000    0.1175040000000000 Pd
   0.6008019999999999    0.6690810000000000    0.0470410000000000 Pd
   0.4491350000000000    0.4070910000000000    0.2266810000000000 Pd
   0.3598090000000001    0.7175880000000001    0.6640610000000000 Pd
   0.7608359999999997    0.0319220000000000    0.1175210000000000 Pd
   0.5655940000000000    0.1343580000000000    0.7902330000000000 Pd
   0.5447810000000000    0.0885870000000000    0.5911520000000000 Pd
   0.1860880000000000    0.3750720000000000    0.8022460000000000 Pd
   0.8763000000000001    0.2551600000000001    0.6766100000000000 Pd
   0.2391640000000000    0.9680780000000000    0.8824790000000000 Pd
   0.0000000000000000    0.5000000000000000    0.5000000000000000 Pd
   0.1974560000000002    0.8875930000000001    0.5606740000000000 Pd
   0.6220490000000001    0.7449590000000000    0.3237140000000000 Pd
   0.9581920000000000    0.4068920000000000    0.2265080000000000 Pd
   0.3991980000000000    0.3309190000000001    0.9529590000000000 Pd
   0.2313260000000000    0.4612330000000000    0.0781770000000000 Pd
   0.9435670000000000    0.8841770000000001    0.0165850000000000 Pd
   0.4344060000000001    0.8656420000000002    0.2097670000000000 Pd
   0.1237000000000002    0.7448400000000001    0.3233900000000000 Pd
   0.4552190000000000    0.9114130000000001    0.4088480000000000 Pd
   0.8025439999999999    0.1124070000000000    0.4393260000000000 Pd
   0.9306820000000000    0.3311130000000000    0.9524560000000000 Pd
   0.7286680000000000    0.9684920000000001    0.8824959999999999 Pd
   0.5000000000000000    0.5000000000000000    0.5000000000000000 Pd
   0.0418080000000001    0.5931080000000000    0.7734920000000000 Pd
   0.5508650000000000    0.5929090000000001    0.7733190000000000 Pd
   0.6871389999999999    0.8858700000000000    0.5613440000000000 Pd
