Be5 Au1
1.0
   0.0000000000000000    3.0597520000000000    3.0597520000000000
   3.0597520000000000    0.0000000000000000    3.0597520000000000
   3.0597520000000000    3.0597520000000000    0.0000000000000000
Be Au
5 1
direct
   0.3753570000000000    0.3753570000000000    0.3753570000000000 Be
   0.7500000000000001    0.7500000000000000    0.7500000000000000 Be
   0.3753570000000000    0.8739280000000000    0.3753569999999999 Be
   0.3753570000000000    0.3753570000000000    0.8739280000000000 Be
   0.8739280000000000    0.3753570000000000    0.3753570000000001 Be
   0.0000000000000000    0.0000000000000000    0.0000000000000000 Au
