Lu5 Mg24
1.0
  -5.5905350000000000    5.5905350000000000    5.5905350000000000
   5.5905350000000000   -5.5905350000000000    5.5905350000000000
   5.5905350000000000    5.5905350000000000   -5.5905350000000000
Lu Mg
5 24
direct
   0.0000000000000000    0.0000000000000000    0.0000000000000000 Lu
   0.6340240000000000   -0.0000000000000000   -0.0000000000000000 Lu
  -0.0000000000000000    0.6340240000000000    0.0000000000000000 Lu
   0.0000000000000000    0.0000000000000000    0.6340240000000000 Lu
   0.3659760000000000    0.3659760000000000    0.3659760000000000 Lu
   0.3945919999999999    0.6805600000000001    0.0000000000000000 Mg
   0.7140320000000000    0.3194400000000000    0.3194400000000000 Mg
   0.3945920000000000    0.0000000000000000    0.6805600000000001 Mg
   0.6805600000000001    0.3945919999999999   -0.0000000000000000 Mg
   0.0000000000000000    0.3945920000000000    0.6805600000000001 Mg
   0.3194400000000000    0.7140320000000000    0.3194400000000000 Mg
   0.3194399999999999    0.3194400000000000    0.7140320000000000 Mg
  -0.0000000000000000    0.6805600000000001    0.3945920000000000 Mg
   0.6805600000000001   -0.0000000000000000    0.3945919999999999 Mg
   0.6054079999999999    0.6054079999999999    0.2859680000000000 Mg
   0.2859680000000000    0.6054079999999999    0.6054079999999999 Mg
   0.6054079999999999    0.2859680000000000    0.6054079999999999 Mg
   0.3699140000000000    0.1906740000000000   -0.0000000000000000 Mg
   0.1792400000000000    0.8093259999999999    0.8093259999999999 Mg
   0.3699140000000000   -0.0000000000000000    0.1906740000000000 Mg
   0.1906740000000000    0.3699140000000000    0.0000000000000000 Mg
  -0.0000000000000000    0.3699140000000000    0.1906740000000000 Mg
   0.8093259999999999    0.1792400000000000    0.8093259999999999 Mg
   0.8093259999999999    0.8093259999999999    0.1792400000000000 Mg
  -0.0000000000000000    0.1906740000000000    0.3699140000000000 Mg
   0.1906740000000000    0.0000000000000000    0.3699140000000000 Mg
   0.6300859999999999    0.6300859999999999    0.8207599999999999 Mg
   0.8207599999999999    0.6300860000000000    0.6300860000000000 Mg
   0.6300859999999999    0.8207599999999999    0.6300859999999999 Mg
