Mg6 Hg2
1.0
   3.1414830000000000   -5.4412079999999996    0.0000000000000000
   3.1414830000000000    5.4412079999999996    0.0000000000000000
   0.0000000000000000    0.0000000000000000    5.0460039999999999
Mg Hg
6 2
direct
   0.1683070000000000    0.3366129999999999    0.2500000000000000 Mg
   0.1683070000000001    0.8316929999999999    0.2500000000000000 Mg
   0.6633869999999999    0.8316930000000000    0.2500000000000000 Mg
   0.3366129999999999    0.1683070000000000    0.7500000000000000 Mg
   0.8316929999999999    0.1683070000000001    0.7500000000000000 Mg
   0.8316930000000000    0.6633869999999999    0.7500000000000000 Mg
   0.6666670000000000    0.3333330000000000    0.2500000000000000 Hg
   0.3333330000000000    0.6666670000000000    0.7500000000000000 Hg
