Mo1 S6
1.0
   4.4763089999999996   -8.3013829999999995    0.0000000000000000
   4.4763089999999996    8.3013829999999995    0.0000000000000000
   0.0000000000000000    0.0000000000000000   49.2594040000000035
Mo S
1 6
direct
   0.0000000000000000    0.0000000000000000    0.0000000000000000 Mo
   0.0000000000000000    0.0000000000000000    0.2500940000000000 S
   0.0000000000000000    0.0000000000000000    0.7499060000000000 S
   0.2423019999999999    0.9909449999999999    0.0000000000000000 S
   0.7576980000000000    0.0090550000000000    0.0000000000000000 S
   0.9909449999999999    0.2423019999999999    0.0000000000000000 S
   0.0090550000000000    0.7576980000000000    0.0000000000000000 S
