Yb5 Mg1
1.0
   3.2322780000000000   -5.5984689999999997    0.0000000000000000
   3.2322780000000000    5.5984689999999997    0.0000000000000000
   0.0000000000000000    0.0000000000000000    6.1233360000000001
Yb Mg
5 1
direct
   0.6666669999999999    0.3333330000000000    0.5000000000000000 Yb
   0.3234090000000000    0.0000000000000000    0.0000000000000000 Yb
   0.6765909999999999    0.6765910000000001    0.0000000000000000 Yb
  -0.0000000000000000    0.3234090000000001    0.0000000000000000 Yb
   0.3333329999999999    0.6666670000000000    0.5000000000000000 Yb
   0.0000000000000000    0.0000000000000000    0.5000000000000000 Mg
