Dy2 Os6
1.0
   2.9187040000000000   -5.0553439999999998    0.0000000000000000
   2.9187040000000000    5.0553439999999998    0.0000000000000000
   0.0000000000000000    0.0000000000000000    4.6073579999999996
Dy Os
2 6
direct
   0.3333330000000000    0.6666670000000000    0.7500000000000000 Dy
   0.6666670000000000    0.3333330000000000    0.2500000000000000 Dy
   0.1575120000000000    0.3150230000000000    0.2500000000000000 Os
   0.6849769999999999    0.8424880000000001    0.2500000000000000 Os
   0.1575120000000000    0.8424880000000000    0.2500000000000000 Os
   0.8424880000000001    0.6849769999999999    0.7500000000000000 Os
   0.3150230000000000    0.1575120000000000    0.7500000000000000 Os
   0.8424880000000000    0.1575120000000000    0.7500000000000000 Os
