Si1 As3
1.0
  -1.8729920000000000    1.8729920000000000    5.4719009999999999
   1.8729920000000000   -1.8729920000000000    5.4719009999999999
   1.8729920000000000    1.8729920000000000   -5.4719009999999999
Si As
1 3
direct
   0.0000000000000000    0.0000000000000000    0.0000000000000000 Si
   0.7500000000000000    0.2500000000000000    0.5000000000000000 As
   0.2500000000000000    0.7499999999999999    0.5000000000000000 As
   0.4999999999999999    0.4999999999999999    0.0000000000000000 As
