Al6 W3
1.0
   2.4364340000000002   -4.2200280000000001    0.0000000000000000
   2.4364340000000002    4.2200280000000001    0.0000000000000000
   0.0000000000000000    0.0000000000000000    6.7867910000000000
Al W
6 3
direct
   0.1685450000000001    0.8314550000000001    0.1666670000000000 Al
   0.3370890000000000    0.1685449999999999    0.8333330000000000 Al
   0.8314550000000001    0.6629109999999999    0.5000000000000000 Al
   0.8314550000000002    0.1685450000000000    0.1666670000000000 Al
   0.6629110000000000    0.8314549999999999    0.8333330000000000 Al
   0.1685449999999999    0.3370890000000000    0.5000000000000000 Al
   0.5000000000000000   -0.0000000000000000    0.5000000000000000 W
   0.0000000000000000    0.4999999999999999    0.8333330000000000 W
   0.5000000000000000    0.4999999999999999    0.1666670000000000 W
