Ga50 N50
1.0
  11.8140658199999997    0.3225691500000000   -0.4111482700000000
   0.3394717100000000   11.4423637399999993   -0.3264777900000000
  -0.3922160200000000   -0.3035295500000000   11.1284274500000002
Ga N
50 50
direct
   0.0524490400000000    0.7017787100000000    0.6511154100000001 Ga
   0.2019062400000000    0.6029864199999999    0.4903439900000001 Ga
   0.1824069399999999    0.5563907700000000    0.0095794300000000 Ga
   0.8309507300000000    0.8243383299999999    0.5790268300000001 Ga
   0.1656918599999999    0.2723547099999999    0.1145549600000000 Ga
   0.5147183599999999    0.5320080599999999    0.7474820200000000 Ga
   0.4939937899999999    0.8251190400000000    0.7955616900000001 Ga
   0.0900959800000000    0.0082984800000000    0.0952834700000000 Ga
   0.5035647199999999    0.4147392199999999    0.4605920900000001 Ga
   0.8551562199999999    0.0786978300000000    0.1989219100000001 Ga
   0.3018610600000000    0.8688099899999999    0.9160188200000002 Ga
   0.1938556000000000    0.0790688600000000    0.8151194600000002 Ga
   0.7084599899999999    0.3819736699999999    0.9168140700000001 Ga
   0.8683297799999997    0.2944139299999999    0.0726455800000000 Ga
   0.9747848699999999    0.2386784000000000    0.3544047600000000 Ga
   0.4145010799999999    0.0647137100000000    0.7931245000000002 Ga
   0.9041139900000000    0.0363697100000000    0.5326826600000001 Ga
   0.5861692800000000    0.6483987099999999    0.0070072800000000 Ga
   0.6357438699999998    0.5777371199999999    0.3987804300000001 Ga
   0.6551388299999998    0.0107057400000000    0.6461019800000001 Ga
   0.0360338000000000    0.7318766399999999    0.3750094600000001 Ga
   0.6074155299999999    0.7309338599999998    0.2358605800000000 Ga
   0.8884535099999998    0.3447177900000000    0.6231418600000002 Ga
   0.5909126999999998    0.1924778600000000    0.9091179400000001 Ga
   0.3625846899999999    0.2688820299999999    0.3205771800000001 Ga
   0.6066509399999999    0.9288245399999999    0.0424303800000000 Ga
   0.0540424300000000    0.4983860499999999    0.1528580000000000 Ga
   0.9255251099999998    0.5316439199999999    0.4251806700000001 Ga
   0.4327791899999999    0.9226696199999996    0.5252350700000000 Ga
   0.8630966399999996    0.0112057700000000    0.9517805600000000 Ga
   0.9405595799999997    0.5478292299999999    0.8586988300000001 Ga
   0.6467973799999998    0.2706155299999999    0.6245073800000001 Ga
   0.9808636899999997    0.1550731100000000    0.7355141700000000 Ga
   0.1473833300000000    0.3969333099999999    0.5057404300000001 Ga
   0.3663596699999999    0.0961156500000000    0.0590080700000000 Ga
   0.0820894300000000    0.3164134700000000    0.8839260800000001 Ga
   0.6040380099999999    0.7547763500000000    0.5534608900000000 Ga
   0.7187868999999997    0.6873965899999999    0.8290457500000001 Ga
   0.2026064900000000    0.5040930699999999    0.7336133100000001 Ga
   0.8284222999999998    0.5576635000000000    0.1844099200000001 Ga
   0.7598610099999996    0.3431151199999999    0.3592320700000000 Ga
   0.8446807599999999    0.7935910399999998    0.0616777700000000 Ga
   0.9289981899999997    0.8375434299999999    0.8122104300000000 Ga
   0.4170292499999999    0.2698776800000000    0.6847754800000001 Ga
   0.4310375299999999    0.9519155399999999    0.2785010200000000 Ga
   0.3621621799999999    0.6400985499999999    0.9527424200000002 Ga
   0.0649239300000000    0.9468198799999999    0.3113361600000000 Ga
   0.3505274600000000    0.6710896699999999    0.6351537500000001 Ga
   0.7639489299999997    0.5941959300000000    0.6273477900000000 Ga
   0.1121434200000000    0.7660205699999999    0.9650569700000000 Ga
   0.2688076000000000    0.0961975100000000    0.5213610200000001 N
   0.5029909099999998    0.0628301400000000    0.9700928300000001 N
   0.5844242999999999    0.1205476200000000    0.2679928900000000 N
   0.9475705099999998    0.0683696800000000    0.3677044700000001 N
   0.9342718799999998    0.6909843399999999    0.5120216600000002 N
   0.0987877000000000    0.4859637900000000    0.8645666900000001 N
   0.7766267999999998    0.5043138999999999    0.3375236200000001 N
   0.3479354199999999    0.5778782699999999    0.7796541300000001 N
   0.7530930799999997    0.8640507199999999    0.3643352600000000 N
   0.2586151600000000    0.7565287799999998    0.1693972400000000 N
   0.5095847499999999    0.6921025399999999    0.6750943500000001 N
   0.6111614199999998    0.7947308499999998    0.9176649100000001 N
   0.1203552100000000    0.2620822400000000    0.2878568600000000 N
   0.8813525299999997    0.4994167799999999    0.7009172100000000 N
   0.1978145099999999    0.2584120499999999    0.7711408900000000 N
   0.1999532199999999    0.2989927700000000    0.3664596000000001 N
   0.7512849899999998    0.1175007700000000    0.8623373100000002 N
   0.5198452199999999    0.0731427600000000    0.5065730500000000 N
   0.9845488099999999    0.3714288499999999    0.4802918400000001 N
   0.7318594899999996    0.6842716699999999    0.1253622600000000 N
   0.3610816099999999    0.5422403399999999    0.2881543700000000 N
   0.3494105999999999    0.4971004599999999    0.1961306400000001 N
   0.4100093399999999    0.3762624700000000    0.9139074200000000 N
   0.0056151400000000    0.8622474200000000    0.0484014500000000 N
   0.1688897000000000    0.8650494699999998    0.5855750900000000 N
   0.2285316699999999    0.0154538700000000    0.9943062000000001 N
   0.6398108299999998    0.5362744900000000    0.8736222700000000 N
   0.5350680899999999    0.8699250400000000    0.1779915300000000 N
   0.2658092699999999    0.8545920599999998    0.6055229200000001 N
   0.5412676900000000    0.3196760900000000    0.1315369500000000 N
   0.5064400899999999    0.1725423100000000    0.5452095000000001 N
   0.9503747199999996    0.1209615100000000    0.0645906300000000 N
   0.8248706099999997    0.8513229999999999    0.3016970100000000 N
   0.8348463399999997    0.2513269300000000    0.2380270200000000 N
   0.3203602499999999    0.2209422900000000    0.1589282600000000 N
   0.9825383899999998    0.5930813999999999    0.2774497600000000 N
   0.2901618100000000    0.7718162899999997    0.2664009100000000 N
   0.5951065299999998    0.3885880700000000    0.1783743300000000 N
   0.7668249499999997    0.2831736399999999    0.7627475200000001 N
   0.9120501099999998    0.4565638899999999    0.0643584700000000 N
   0.7707642899999999    0.9583576599999999    0.0811702700000000 N
   0.1741300000000000    0.0920290700000000    0.5251348900000001 N
   0.6676583899999998    0.1014670400000000    0.3202557200000001 N
   0.2518815699999999    0.3230935400000000    0.7063034100000001 N
   0.7551111699999998    0.2965723200000000    0.5146494800000000 N
   0.5136565199999998    0.3947456999999999    0.6372129800000002 N
   0.5036173600000000    0.9553178200000000    0.6960177300000001 N
   0.8111888999999998    0.1851558800000000    0.8070247200000000 N
   0.3322772999999999    0.3646376400000000    0.9640821700000002 N
   0.8713770199999998    0.7029185000000000    0.9048855600000000 N
