Rb3 Tl1
1.0
   0.0000000000000000    4.9123180000000000    4.9123180000000000
   4.9123180000000000    0.0000000000000000    4.9123180000000000
   4.9123180000000000    4.9123180000000000    0.0000000000000000
Rb Tl
3 1
direct
   0.2500000000000001    0.2500000000000000    0.2500000000000000 Rb
   0.7500000000000001    0.7500000000000001    0.7500000000000001 Rb
   0.5000000000000001    0.5000000000000000    0.4999999999999999 Rb
   0.0000000000000000    0.0000000000000000    0.0000000000000000 Tl
