Mg3 Zn3
1.0
   1.5249729999999999   -7.5878800000000002    0.0000000000000000
   1.5249729999999999    7.5878800000000002    0.0000000000000000
   0.0000000000000000    0.0000000000000000    4.8003039999999997
Mg Zn
3 3
direct
   0.9982860000000000    0.0017140000000000    0.0000000000000000 Mg
   0.6730490000000000    0.3269510000000000    0.0000000000000000 Mg
   0.4392790000000000    0.5607210000000000    0.5000000000000000 Mg
   0.3332410000000000    0.6667590000000000    0.0000000000000000 Zn
   0.1131300000000000    0.8868700000000000    0.5000000000000000 Zn
   0.7763480000000001    0.2236520000000001    0.5000000000000000 Zn
