Tb2 Fe4
1.0
   0.0000000000000000    3.6502260000000000    3.6502260000000000
   3.6502260000000000    0.0000000000000000    3.6502260000000000
   3.6502260000000000    3.6502260000000000    0.0000000000000000
Tb Fe
2 4
direct
   0.0000000000000000    0.0000000000000000    0.0000000000000000 Tb
   0.2500000000000000    0.2500000000000000    0.2500000000000001 Tb
   0.1250000000000002    0.6250000000000001    0.6250000000000002 Fe
   0.6250000000000000    0.6250000000000001    0.1250000000000000 Fe
   0.6250000000000000    0.1250000000000001    0.6250000000000002 Fe
   0.6250000000000001    0.6250000000000001    0.6250000000000001 Fe
