Er8 Au4
1.0
   4.8928019999999997    0.0000000000000000    0.0000000000000000
   0.0000000000000000    7.0887770000000003    0.0000000000000000
   0.0000000000000000    0.0000000000000000    8.8987210000000001
Er Au
8 4
direct
   0.2500000000000000    0.8483260000000000    0.9248730000000001 Er
   0.2500000000000000    0.3483260000000000    0.5751270000000001 Er
   0.7500000000000000    0.1516740000000000    0.0751270000000000 Er
   0.7500000000000000    0.6516740000000000    0.4248730000000000 Er
   0.2500000000000000    0.4823270000000000    0.1793070000000000 Er
   0.2500000000000000    0.9823270000000000    0.3206930000000000 Er
   0.7500000000000000    0.5176730000000000    0.8206930000000000 Er
   0.7500000000000000    0.0176730000000000    0.6793070000000000 Er
   0.2500000000000000    0.2548610000000000    0.8957980000000000 Au
   0.2500000000000000    0.7548610000000000    0.6042020000000000 Au
   0.7500000000000000    0.7451389999999999    0.1042020000000000 Au
   0.7500000000000000    0.2451390000000000    0.3957980000000000 Au
