Mg16 Si12
1.0
   6.0740639999999999    0.0000000000000000    0.0000000000000000
  -2.2486169999999999    6.8441679999999998    0.0000000000000000
  -0.7594210000000000   -0.9896910000000000   12.8685209999999994
Mg Si
16 12
direct
   0.8292820000000000    0.8753770000000001    0.8877620000000001 Mg
   0.6209489999999999    0.4415000000000001    0.9135350000000001 Mg
   0.1190570000000000    0.9295740000000001    0.4273220000000000 Mg
   0.1726320000000000    0.5902730000000000    0.2393690000000000 Mg
   0.3092180000000000    0.8548650000000001    0.8566880000000000 Mg
   0.0855850000000000    0.3877090000000000    0.9219959999999999 Mg
   0.5670590000000001    0.8279480000000001    0.4224900000000000 Mg
   0.3681590000000001    0.3262360000000001    0.3666700000000000 Mg
   0.3376260000000000    0.8431210000000000    0.6308990000000000 Mg
   0.2632940000000000    0.2048570000000000    0.7215009999999999 Mg
   0.8329720000000000    0.8574970000000000    0.2005390000000000 Mg
   0.8204989999999999    0.2242270000000001    0.3303170000000000 Mg
   0.9324310000000000    0.4843750000000001    0.6885550000000001 Mg
   0.8466430000000000    0.8763660000000001    0.6527470000000000 Mg
   0.6158380000000000    0.4327420000000001    0.1467070000000000 Mg
   0.3758380000000000    0.9980360000000001    0.1977690000000000 Mg
   0.5516769999999999    0.1834790000000000    0.5437280000000000 Si
   0.1315760000000000    0.5490030000000000    0.4687080000000000 Si
   0.2625939999999999    0.1249280000000000    0.0055060000000000 Si
   0.0581490000000000    0.7135680000000000    0.0364590000000000 Si
   0.4504940000000001    0.5874240000000001    0.7520420000000000 Si
   0.6972920000000000    0.1489770000000000    0.7832550000000000 Si
   0.7935329999999999    0.5887510000000000    0.3453250000000000 Si
   0.0705820000000000    0.2190230000000000    0.1511240000000000 Si
   0.5388460000000000    0.5270240000000002    0.5731740000000000 Si
   0.9636560000000000    0.2090210000000000    0.5323290000000001 Si
   0.4863160000000000    0.7376120000000002    0.0422320000000000 Si
   0.6791540000000000    0.1133280000000000    0.0253800000000000 Si
