Yb8 Ga4
1.0
   5.0741120000000004    0.0000000000000000    0.0000000000000000
   0.0000000000000000    6.9505390000000000    0.0000000000000000
   0.0000000000000000    0.0000000000000000    9.4597110000000004
Yb Ga
8 4
direct
   0.2500000000000000    0.8300830000000000    0.9299610000000000 Yb
   0.2500000000000000    0.3300830000000000    0.5700389999999999 Yb
   0.7500000000000001    0.1699170000000000    0.0700390000000000 Yb
   0.7500000000000001    0.6699170000000000    0.4299610000000000 Yb
   0.2500000000000000    0.9758400000000000    0.3049800000000000 Yb
   0.2500000000000000    0.4758400000000000    0.1950200000000000 Yb
   0.7500000000000001    0.0241600000000000    0.6950199999999999 Yb
   0.7500000000000001    0.5241600000000000    0.8049800000000000 Yb
   0.2500000000000000    0.2689340000000000    0.8934950000000000 Ga
   0.2500000000000000    0.7689340000000000    0.6065049999999998 Ga
   0.7500000000000001    0.7310660000000000    0.1065050000000000 Ga
   0.7500000000000001    0.2310660000000000    0.3934950000000000 Ga
