Mg4 Si8
1.0
   3.7117030000000000    0.0000000000000000    0.0000000000000000
   0.0000000000000000    5.8084210000000001    0.0000000000000000
   0.0000000000000000    0.4232530000000000    9.3395170000000007
Mg Si
4 8
direct
   0.0000000000000000    0.2528779999999999    0.8432019999999999 Mg
   0.0000000000000000    0.7471219999999998    0.1567980000000000 Mg
   0.4999999999999999    0.4625080000000000    0.3451200000000000 Mg
   0.4999999999999999    0.5374920000000000    0.6548800000000000 Mg
   0.0000000000000000    0.2485100000000000    0.1453820000000000 Si
   0.4999999999999999    0.5000000000000000    0.0000000000000000 Si
   0.0000000000000000    0.8055800000000001    0.4555200000000000 Si
   0.4999999999999999    0.0033730000000000    0.3042770000000000 Si
   0.0000000000000000    0.7514900000000000    0.8546179999999999 Si
   0.4999999999999999    0.0000000000000000    0.0000000000000000 Si
   0.0000000000000000    0.1944200000000000    0.5444800000000000 Si
   0.4999999999999999    0.9966269999999999    0.6957230000000000 Si
