B40 O60
1.0
  11.0893751399999996   -0.2079418900000000   -0.0986254200000000
  -0.2167396300000000   11.7959898699999997    0.0641470200000000
  -0.1009114400000000    0.0659011900000000   10.8911963200000006
B O
40 60
direct
   0.7689721499999997    0.4975212800000001    0.8669273700000000 B
   0.3483359399999999    0.7669484000000000    0.0128139300000000 B
   0.8612279699999998    0.3461100200000000    0.0124119700000000 B
   0.8633604399999998    0.3079092700000000    0.5225913000000000 B
   0.3584755199999999    0.1665649100000000    0.8925862000000000 B
   0.6757818899999998    0.8135969800000000    0.4910998000000000 B
   0.6124104499999998    0.6114061700000000    0.5457113900000000 B
   0.8241326299999999    0.8419935300000001    0.3207858700000000 B
   0.0410302900000000    0.4684178300000000    0.0386540000000000 B
   0.3964671700000000    0.5210388800000000    0.2875321800000000 B
   0.4100998399999999    0.1150767400000000    0.0544900000000000 B
   0.8237314399999998    0.1665048600000000    0.1412001600000000 B
   0.9299647599999999    0.9531787800000001    0.7738996999999999 B
   0.4777582200000000    0.0350349700000000    0.2710297500000001 B
   0.7868826300000000    0.6296095400000001    0.2638418800000000 B
   0.8595978200000000    0.0290667800000000    0.2143253400000000 B
   0.6126791799999999    0.6821195799999999    0.1298893200000000 B
   0.4575140699999999    0.7941247800000000    0.8049312099999999 B
   0.5083117699999999    0.3311182800000000    0.9892656200000000 B
   0.7273230100000000    0.0192771800000000    0.8483177900000000 B
   0.8013074699999998    0.5675160000000000    0.6647541300000001 B
   0.5249559699999999    0.3656964100000000    0.7580181600000000 B
   0.4187597199999999    0.5083389800000000    0.6016299899999999 B
   0.6551541999999999    0.2496750000000000    0.6157920800000001 B
   0.5214692099999998    0.0983246600000000    0.4889744600000000 B
   0.1151386900000000    0.0566218000000000    0.4216032900000000 B
   0.0460291400000000    0.3128987100000000    0.9034401899999999 B
   0.1449882400000000    0.6675785500000000    0.0281221100000000 B
   0.7808011099999999    0.4252875500000001    0.3334861000000000 B
   0.1903533500000000    0.5538929100000000    0.5777072400000000 B
   0.5795450499999999    0.4112270800000000    0.2101177700000000 B
   0.5170540299999999    0.9150831200000000    0.6200775100000000 B
   0.0230157400000000    0.7731134199999999    0.8668350699999999 B
   0.2000026199999999    0.2382295700000000    0.7520100300000000 B
   0.6029515699999999    0.6571122400000000    0.8976509899999999 B
   0.0353992600000000    0.9092691100000000    0.5798906900000000 B
   0.1916674900000000    0.1244184100000000    0.2194988700000000 B
   0.9829048299999996    0.7019009300000000    0.6523578200000000 B
   0.4807854099999999    0.8363033300000001    0.1955922300000000 B
   0.0806715400000000    0.2369086200000000    0.5536665400000000 B
   0.9377991799999998    0.1203497000000000    0.1795294500000000 O
   0.8199064499999998    0.5369509700000000    0.3314301100000000 O
   0.1649311000000000    0.0483230500000000    0.3040484600000000 O
   0.6930464299999999    0.5902608000000000    0.8701238900000001 O
   0.4885457499999998    0.5872837900000000    0.5412001300000000 O
   0.3973525899999999    0.8368247300000001    0.1037808500000000 O
   0.7535107100000000    0.8750346800000000    0.4164757700000000 O
   0.9904881299999999    0.9801032599999999    0.6678647400000000 O
   0.3709210299999999    0.7902296599999999    0.8921047500000000 O
   0.3193573199999999    0.2130818500000000    0.7891609100000000 O
   0.8370588199999996    0.4985399600000001    0.7607055099999999 O
   0.6543060900000000    0.7000879400000000    0.4744175200000000 O
   0.5984835500000000    0.2846964200000000    0.7203405100000000 O
   0.1819691400000000    0.2537933100000000    0.6289321100000000 O
   0.5497871700000000    0.7181203300000001    0.8026457700000001 O
   0.6243176399999998    0.0197226600000000    0.8877180600000001 O
   0.9566216699999998    0.8717728000000001    0.8568512100000001 O
   0.7702108600000001    0.4197440200000000    0.9558325800000000 O
   0.0963395200000000    0.9566338300000001    0.4811216200000000 O
   0.7921925699999998    0.2596477000000000    0.0846959700000000 O
   0.8889534499999999    0.9265376900000000    0.2590786500000000 O
   0.2368546400000000    0.1880817000000000    0.1407330000000000 O
   0.5046565999999999    0.4821553500000000    0.2741144400000000 O
   0.5151935799999999    0.3891612300000001    0.8823285400000001 O
   0.0831514400000000    0.5750061100000000    0.0715775500000000 O
   0.0228013400000000    0.6955724200000000    0.7754958300000000 O
   0.6865156299999999    0.5430195000000000    0.6121995200000000 O
   0.2939690300000000    0.5084100300000000    0.5787044000000000 O
   0.5962299400000000    0.1843268300000000    0.5300997600000000 O
   0.5612921899999999    0.6762469199999999    0.0146537900000000 O
   0.5372940199999999    0.3674301800000001    0.1016838300000000 O
   0.3378558000000000    0.0682467700000000    0.9594123500000001 O
   0.7467000599999999    0.0724617500000000    0.1826712800000000 O
   0.2674003200000000    0.6818658900000000    0.0460788000000000 O
   0.6221893099999998    0.8675729799999999    0.5857745200000000 O
   0.4473931599999999    0.2203376300000000    0.9800972900000001 O
   0.1029260900000000    0.4115230700000000    0.9480295200000001 O
   0.6835731999999998    0.3827832899999999    0.2657551300000000 O
   0.0881959900000000    0.5914617000000000    0.5848400800000001 O
   0.4562078899999999    0.4273743600000000    0.6790100900000000 O
   0.8418620299999997    0.3528727200000000    0.4092404600000000 O
   0.4443857799999999    0.8719149500000000    0.7111203000000000 O
   0.4796543899999999    0.0124608500000000    0.5634761600000000 O
   0.1153462000000000    0.2394635600000000    0.8376879300000001 O
   0.4870216299999999    0.9210256700000000    0.2831915100000000 O
   0.8395223699999997    0.7332393200000002    0.2877344400000000 O
   0.2985465400000000    0.5598871900000000    0.3096475800000000 O
   0.8328366300000000    0.0217782500000000    0.7969005000000000 O
   0.7740170600000000    0.2788068699999999    0.6033685300000000 O
   0.7058511299999999    0.6164086300000000    0.1657198500000000 O
   0.4625456999999999    0.0854981200000000    0.1565150800000000 O
   0.9404665799999999    0.4207130400000000    0.0899671300000000 O
   0.5663071399999999    0.7551911500000000    0.2129169300000000 O
   0.0839756700000000    0.7571890000000001    0.9744078100000001 O
   0.4850443500000000    0.1074410800000000    0.3673384099999999 O
   0.9298929799999998    0.2842530000000000    0.9222659600000002 O
   0.0901287000000000    0.1617238500000000    0.4593511600000000 O
   0.9799860099999996    0.2958903700000000    0.5661370300000000 O
   0.8696190599999997    0.6548223400000001    0.6179903800000000 O
   0.0190658800000000    0.7958540000000000    0.5805824600000000 O
