Ce2 Mg4
1.0
   1.5706750000000000   -8.9115690000000001    0.0000000000000000
   1.5706750000000000    8.9115690000000001    0.0000000000000000
   0.0000000000000000    0.0000000000000000    5.1543039999999998
Ce Mg
2 4
direct
   0.2709990000000000    0.7290010000000000    0.2500000000000000 Ce
   0.7290010000000000    0.2709990000000000    0.7500000000000000 Ce
   0.6047070000000000    0.3952930000000000    0.2500000000000000 Mg
   0.9469280000000000    0.0530720000000000    0.2500000000000000 Mg
   0.0530720000000000    0.9469280000000000    0.7500000000000000 Mg
   0.3952930000000000    0.6047070000000000    0.7500000000000000 Mg
