Zn18 S18
1.0
  -1.9378059800000000   -3.3563785300000002   -0.0000000000000000
   1.9378059800000000   -3.3563785300000002   -0.0000000000000000
   0.0000000000000000   -2.2375853499999998   56.5047748100000007
Zn S
18 18
direct
   0.9999935099999999    0.9999935099999999    0.0000194700000000 Zn
   0.9444362799999999    0.9444362799999999    0.1666911700000000 Zn
   0.8888780699999999    0.8888780699999999    0.3333657900000000 Zn
   0.8148044799999999    0.8148044799999999    0.5555865600000000 Zn
   0.7407356500000000    0.7407356500000000    0.7777930500000000 Zn
   0.6851856999999999    0.6851856999999999    0.9444428900000000 Zn
   0.6296256099999999    0.6296256099999999    0.1111231600000000 Zn
   0.5740638600000000    0.5740638600000000    0.2778084200000000 Zn
   0.5185139500000000    0.5185139500000000    0.4444581500000000 Zn
   0.4629520300000000    0.4629520300000000    0.6111439199999998 Zn
   0.4259176299999999    0.4259176299999999    0.7222471099999999 Zn
   0.3888773200000000    0.3888773200000000    0.8333680500000000 Zn
   0.3148077499999999    0.3148077499999999    0.0555767400000000 Zn
   0.2592527900000000    0.2592527900000000    0.2222416300000000 Zn
   0.2036916100000000    0.2036916100000000    0.3889251800000000 Zn
   0.1666602800000000    0.1666602800000000    0.5000191700000000 Zn
   0.1111014300000000    0.1111014300000000    0.6666957200000000 Zn
   0.0370323200000000    0.0370323200000000    0.8889030500000000 Zn
   0.9861221899999998    0.9861221899999998    0.0416334400000000 S
   0.9305660300000000    0.9305660300000000    0.2083019100000000 S
   0.8750128700000001    0.8750128700000001    0.3749613800000000 S
   0.8009391299999999    0.8009391299999999    0.5971826199999999 S
   0.7268569799999999    0.7268569799999999    0.8194290500000000 S
   0.6713048500000001    0.6713048500000001    0.9860854399999999 S
   0.6157527900000002    0.6157527900000002    0.1527416400000000 S
   0.5601984599999998    0.5601984599999998    0.3194046300000000 S
   0.5046368599999999    0.5046368599999999    0.4860894100000000 S
   0.4491006700000000    0.4491006700000000    0.6526979800000000 S
   0.4120665800000000    0.4120665800000000    0.7638002699999999 S
   0.3750119400000000    0.3750119400000000    0.8749641700000000 S
   0.3009349700000000    0.3009349700000000    0.0971950900000000 S
   0.2453850200000000    0.2453850200000000    0.2638449300000000 S
   0.1898395800000000    0.1898395800000000    0.4304812600000000 S
   0.1527935700000000    0.1527935700000000    0.5416192800000000 S
   0.0972299300000000    0.0972299300000000    0.7083102000000000 S
   0.0231773200000000    0.0231773200000000    0.9304680500000000 S
