Pr24 O44
1.0
   6.9168729999999998    0.0000000000000000    0.0000000000000000
   0.0929630000000000   12.2638999999999996    0.0000000000000000
   2.7338309999999999    0.1913980000000000   13.1714059999999993
Pr O
24 44
direct
   0.4913939999999999    0.4215110000000001    0.2511860000000000 Pr
   0.5086059999999999    0.5784890000000000    0.7488140000000000 Pr
   0.7501039999999999    0.4050740000000000    0.5046500000000000 Pr
   0.2498960000000000    0.5949260000000000    0.4953500000000001 Pr
   0.2471200000000000    0.2369350000000000    0.5057150000000000 Pr
   0.7528799999999999    0.7630650000000000    0.4942850000000000 Pr
   0.2634030000000000    0.4162150000000000    0.0025250000000000 Pr
   0.7365969999999999    0.5837850000000000    0.9974750000000000 Pr
   0.2423729999999999    0.0797330000000000    0.9977500000000001 Pr
   0.7576270000000002    0.9202669999999998    0.0022500000000000 Pr
   0.0084920000000000    0.7309550000000000    0.7497620000000000 Pr
   0.9915079999999999    0.2690449999999999    0.2502380000000000 Pr
   0.2568489999999999    0.9190009999999998    0.4778410000000000 Pr
   0.7431510000000001    0.0809990000000000    0.5221590000000000 Pr
   0.5437019999999999    0.9114600000000000    0.7556240000000000 Pr
   0.4562980000000000    0.0885400000000000    0.2443760000000000 Pr
   0.7446889999999998    0.2473150000000000    0.0205320000000000 Pr
   0.2553110000000000    0.7526850000000000    0.9794680000000000 Pr
   0.4661469999999999    0.2453370000000000    0.7485510000000001 Pr
   0.5338529999999999    0.7546630000000000    0.2514490000000000 Pr
   0.0160740000000000    0.4263180000000000    0.7388970000000000 Pr
   0.9839259999999999    0.5736820000000001    0.2611030000000000 Pr
   0.0053010000000000    0.0773210000000000    0.7535750000000000 Pr
   0.9946990000000000    0.9226790000000000    0.2464250000000000 Pr
   0.0778280000000000    0.0647810000000000    0.5726300000000000 O
   0.9221720000000000    0.9352190000000001    0.4273700000000001 O
   0.4716269999999999    0.0775790000000000    0.4225800000000001 O
   0.5283730000000001    0.9224210000000002    0.5774200000000000 O
   0.0672859999999999    0.7687570000000000    0.5671960000000000 O
   0.9327140000000000    0.2312430000000000    0.4328040000000000 O
   0.7060710000000000    0.7447910000000000    0.6787920000000001 O
   0.2939289999999999    0.2552090000000000    0.3212080000000000 O
   0.8599950000000000    0.9049290000000000    0.8070990000000001 O
   0.1400050000000000    0.0950710000000000    0.1929010000000000 O
   0.3105229999999999    0.0621340000000000    0.8075030000000000 O
   0.6894769999999999    0.9378660000000000    0.1924970000000000 O
   0.5507630000000000    0.2448850000000000    0.5659419999999999 O
   0.4492370000000000    0.7551149999999999    0.4340580000000000 O
   0.6953660000000000    0.0930790000000000    0.7058390000000000 O
   0.3046340000000000    0.9069209999999999    0.2941610000000000 O
   0.5700279999999999    0.4160209999999999    0.0641020000000000 O
   0.6767389999999999    0.2419640000000000    0.2013610000000000 O
   0.4556549999999999    0.9136120000000000    0.9376310000000000 O
   0.5443449999999999    0.0863880000000000    0.0623690000000000 O
   0.0714640000000000    0.2516519999999999    0.0627570000000000 O
   0.9285360000000001    0.7483480000000000    0.9372430000000000 O
   0.9279139999999998    0.0921190000000000    0.9350650000000001 O
   0.0720860000000000    0.9078810000000002    0.0649350000000000 O
   0.8492670000000000    0.7528109999999999    0.2999120000000000 O
   0.1507330000000000    0.2471890000000000    0.7000880000000002 O
   0.5843029999999999    0.5792499999999999    0.5552990000000000 O
   0.4156970000000000    0.4207500000000000    0.4447010000000000 O
   0.6928909999999999    0.5851469999999999    0.1828240000000000 O
   0.3071089999999999    0.4148530000000000    0.8171760000000001 O
   0.0544420000000000    0.5975530000000000    0.0697570000000000 O
   0.9455580000000000    0.4024470000000001    0.9302430000000000 O
   0.9208569999999998    0.5886899999999999    0.4497090000000000 O
   0.0791430000000000    0.4113100000000000    0.5502910000000000 O
   0.7902140000000000    0.4215060000000000    0.3232880000000001 O
   0.2097859999999999    0.5784940000000000    0.6767120000000000 O
   0.3071560000000000    0.6003860000000000    0.3034940000000000 O
   0.6928439999999999    0.3996140000000000    0.6965060000000000 O
   0.1823990000000000    0.4220340000000000    0.1880020000000000 O
   0.8176010000000000    0.5779659999999999    0.8119980000000000 O
   0.5313589999999998    0.7561919999999999    0.0709610000000000 O
   0.4686409999999999    0.2438080000000000    0.9290390000000001 O
   0.4299719999999999    0.5839790000000000    0.9358980000000000 O
   0.3232610000000000    0.7580360000000000    0.7986390000000000 O
