Nd10 Ru4
1.0
   3.2976299999999998    8.2195359999999997    0.0000000000000000
  -3.2976299999999998    8.2195359999999997    0.0000000000000000
   0.0000000000000000    0.8487170000000001    7.3384440000000000
Nd Ru
10 4
direct
   0.0211950000000000    0.7930680000000000    0.9148920000000000 Nd
   0.2069319999999999    0.9788049999999999    0.5851080000000000 Nd
   0.9788049999999999    0.2069319999999999    0.0851080000000000 Nd
   0.7930680000000001    0.0211950000000000    0.4148920000000000 Nd
   0.3593220000000000    0.2063260000000000    0.8148609999999999 Nd
   0.7936740000000000    0.6406780000000000    0.6851390000000001 Nd
   0.6406780000000001    0.7936740000000001    0.1851390000000000 Nd
   0.2063260000000000    0.3593220000000000    0.3148610000000001 Nd
   0.5794870000000000    0.4205130000000001    0.7500000000000000 Nd
   0.4205130000000001    0.5794870000000000    0.2500000000000000 Nd
   0.1773289999999999    0.6019010000000000    0.5755740000000000 Ru
   0.3980990000000000    0.8226709999999999    0.9244260000000000 Ru
   0.8226710000000002    0.3980990000000001    0.4244260000000000 Ru
   0.6019010000000000    0.1773290000000000    0.0755740000000000 Ru
