In16 Se12
1.0
   4.1789280000000000    0.0000000000000000    0.0000000000000000
   0.0000000000000000   12.5711300000000001    0.0000000000000000
   0.0000000000000000    0.0000000000000000   15.5936789999999998
In Se
16 12
direct
   0.0000000000000000    0.6045820000000001    0.5768879999999998 In
   0.0000000000000000    0.3954180000000000    0.4231119999999999 In
   0.5000000000000000    0.1045820000000000    0.9231119999999999 In
   0.5000000000000000    0.8954180000000002    0.0768880000000000 In
   0.5000000000000000    0.1454320000000000    0.5319670000000000 In
   0.5000000000000000    0.8545680000000001    0.4680329999999999 In
   0.0000000000000000    0.6454320000000000    0.9680329999999999 In
   0.0000000000000000    0.3545680000000000    0.0319670000000000 In
   0.5000000000000000    0.0246040000000000    0.6849799999999999 In
   0.5000000000000000    0.9753960000000000    0.3150200000000000 In
   0.0000000000000000    0.5246040000000000    0.8150199999999999 In
   0.0000000000000000    0.4753960000000000    0.1849800000000000 In
   0.5000000000000000    0.8381730000000001    0.7897680000000000 In
   0.5000000000000000    0.1618270000000000    0.2102320000000000 In
   0.0000000000000000    0.3381730000000000    0.7102320000000000 In
   0.0000000000000000    0.6618270000000001    0.2897680000000000 In
   0.5000000000000000    0.6562980000000002    0.0755090000000000 Se
   0.5000000000000000    0.3437020000000000    0.9244909999999998 Se
   0.0000000000000000    0.1562980000000000    0.4244910000000000 Se
   0.0000000000000000    0.8437020000000000    0.5755090000000000 Se
   0.5000000000000000    0.6369800000000000    0.7306820000000001 Se
   0.5000000000000000    0.3630200000000001    0.2693179999999999 Se
   0.0000000000000000    0.1369800000000000    0.7693179999999999 Se
   0.0000000000000000    0.8630200000000001    0.2306820000000000 Se
   0.5000000000000000    0.3491840000000000    0.5964190000000000 Se
   0.5000000000000000    0.6508160000000000    0.4035810000000000 Se
   0.0000000000000000    0.8491840000000002    0.9035810000000000 Se
   0.0000000000000000    0.1508160000000000    0.0964190000000000 Se
