Ce2 I6
1.0
   2.1751200000000002   -7.5581379999999996    0.0000000000000000
   2.1751200000000002    7.5581379999999996    0.0000000000000000
   0.0000000000000000    0.0000000000000000   10.1795589999999994
Ce I
2 6
direct
   0.2571670000000000    0.7428330000000001    0.2500000000000000 Ce
   0.7428330000000001    0.2571670000000000    0.7500000000000000 Ce
   0.6517190000000000    0.3482810000000000    0.0670460000000000 I
   0.3482810000000000    0.6517190000000000    0.9329539999999999 I
   0.3482810000000000    0.6517190000000000    0.5670460000000001 I
   0.6517190000000000    0.3482810000000000    0.4329540000000000 I
   0.9088980000000000    0.0911020000000000    0.2500000000000000 I
   0.0911020000000000    0.9088980000000000    0.7500000000000000 I
