Nb3 Te6
1.0
   1.8357060000000001    7.4762130000000004    0.0000000000000000
  -1.8357060000000001    7.4762130000000004    0.0000000000000000
   0.0000000000000000    3.4435220000000002    8.9053730000000009
Nb Te
3 6
direct
   0.0000000000000000    0.0000000000000000    0.0000000000000000 Nb
   0.3622820000000000    0.3622820000000000    0.2880220000000000 Nb
   0.6377179999999999    0.6377179999999999    0.7119780000000000 Nb
   0.3519740000000001    0.3519740000000001    0.0109820000000000 Te
   0.6480260000000001    0.6480260000000001    0.9890179999999998 Te
   0.7043880000000000    0.7043880000000000    0.3822940000000000 Te
   0.2956120000000000    0.2956120000000000    0.6177059999999999 Te
   0.0051550000000000    0.0051550000000000    0.6918120000000000 Te
   0.9948450000000000    0.9948450000000000    0.3081880000000000 Te
