Sn2 S4
1.0
  -2.9963210000000000    2.9963210000000000    4.9863700000000000
   2.9963210000000000   -2.9963210000000000    4.9863700000000000
   2.9963210000000000    2.9963210000000000   -4.9863700000000000
Sn S
2 4
direct
   0.7500000000000000    0.2500000000000000    0.5000000000000000 Sn
   0.0000000000000000    0.0000000000000000    0.0000000000000000 Sn
   0.8749999999999999    0.8820660000000000    0.5070660000000000 S
   0.1179340000000000    0.6250000000000000    0.9929340000000000 S
   0.3750000000000000    0.3679340000000000    0.4929340000000000 S
   0.6320660000000000    0.1250000000000000    0.0070660000000000 S
