Zn50 S50
1.0
  12.9345446600000002   -0.6685713500000000    0.3602321800000000
  -0.6345916200000000   13.5673668700000007    0.1906398600000000
   0.3528309500000000    0.2066382800000000   13.5238708100000000
Zn S
50 50
direct
   0.0420963100000000    0.1566673300000000    0.6858943800000000 Zn
   0.3405880000000001    0.5714143699999999    0.5477192700000000 Zn
   0.7333401000000002    0.0826042200000000    0.9454214100000001 Zn
   0.7092368600000001    0.4521702899999999    0.4468324300000001 Zn
   0.0776576400000000    0.8310708399999999    0.6509006800000000 Zn
   0.4350148300000001    0.0308735200000000    0.4624787000000000 Zn
   0.9359914200000001    0.5531158899999999    0.2900100700000000 Zn
   0.3600457599999999    0.9604457800000001    0.1985018100000000 Zn
   0.5733099100000001    0.5241955300000000    0.9865239700000000 Zn
   0.6494740300000001    0.8881377499999999    0.1371410000000000 Zn
   0.9142197500000000    0.3140077999999999    0.5475433700000000 Zn
   0.4805832300000000    0.9568056600000000    0.9352817600000000 Zn
   0.1018623100000000    0.9234719600000000    0.2302145900000000 Zn
   0.9310408000000000    0.2953388600000000    0.7399334400000002 Zn
   0.5274996000000001    0.8858867100000000    0.5245305900000000 Zn
   0.4336230500000000    0.7201208700000000    0.0533682700000000 Zn
   0.0012640300000000    0.8066819399999999    0.8174987700000000 Zn
   0.0450622600000000    0.0629463600000000    0.4780303900000000 Zn
   0.2963213100000001    0.1774194200000000    0.0828768300000000 Zn
   0.4000608700000000    0.5714951700000001    0.2195124200000000 Zn
   0.1123890300000000    0.2648110900000000    0.8199533200000001 Zn
   0.1745454800000000    0.0320288500000000    0.9460540000000000 Zn
   0.5949813700000001    0.2165163300000000    0.5516149100000001 Zn
   0.4638581500000001    0.8218196600000001    0.6995335800000001 Zn
   0.5493029000000000    0.5698027800000000    0.6404351000000001 Zn
   0.9491843599999998    0.5670851800000001    0.8916901600000000 Zn
   0.4754778900000001    0.1119273600000000    0.7576952100000001 Zn
   0.6349475700000000    0.5159655300000000    0.2142579800000000 Zn
   0.7438962500000001    0.1844055400000000    0.4082023600000000 Zn
   0.4345325200000001    0.2680113000000000    0.9767000700000001 Zn
   0.0002033900000000    0.8003339100000001    0.4384974000000000 Zn
   0.6343227000000000    0.9323127200000000    0.6746283100000000 Zn
   0.9833436000000001    0.1394655100000000    0.1072640500000000 Zn
   0.4826006700000001    0.2042295800000000    0.1571435800000000 Zn
   0.6559768600000000    0.2921881000000000    0.8670153400000001 Zn
   0.3063362200000000    0.7002936100000001    0.8742087500000000 Zn
   0.8111689000000002    0.9314839200000000    0.3034261700000000 Zn
   0.2282287700000000    0.3325586700000000    0.5542056100000000 Zn
   0.2546930900000000    0.5628887900000000    0.7655688800000000 Zn
   0.8459360500000002    0.3442578700000001    0.2456322800000000 Zn
   0.7490619600000000    0.6215351300000000    0.8258168900000001 Zn
   0.5838607100000001    0.9801926299999999    0.3477697700000000 Zn
   0.4754353300000000    0.4265001100000000    0.4234359400000001 Zn
   0.1308950500000000    0.7105460700000000    0.5084043800000000 Zn
   0.2259213000000000    0.5018479000000000    0.2872166500000000 Zn
   0.0484007000000000    0.4338115700000000    0.1151335900000000 Zn
   0.9432286900000000    0.9742475999999999    0.0494555500000000 Zn
   0.8309909599999999    0.4018088300000000    0.0235967400000000 Zn
   0.0418615100000000    0.4410612100000000    0.6268754800000000 Zn
   0.8119957800000001    0.9945004500000000    0.6303855300000001 Zn
   0.4773909500000000    0.8899469500000000    0.0884785800000000 S
   0.4887052700000000    0.2723721400000000    0.8157599200000001 S
   0.2514977300000000    0.9486938300000001    0.4410316600000000 S
   0.6378266100000001    0.2002435500000000    0.0439341300000000 S
   0.3270081200000000    0.3135289900000000    0.4108065600000000 S
   0.2205416600000000    0.0176543900000000    0.1191661600000000 S
   0.0051966400000000    0.8147926000000000    0.1328576700000000 S
   0.7143824400000001    0.4548231800000000    0.9119419999999999 S
   0.7969065100000001    0.2093011400000000    0.8289851199999999 S
   0.9571389600000000    0.5636023100000001    0.7083661700000001 S
   0.0272438200000000    0.9555021200000000    0.8944154300000001 S
   0.5049370000000001    0.7406523400000000    0.8508581500000000 S
   0.1689132000000000    0.2040972700000000    0.9641293800000000 S
   0.5757982800000000    0.6430014700000001    0.1064457700000000 S
   0.8792853400000000    0.7029044800000002    0.3467211900000001 S
   0.7862016800000001    0.2451034900000000    0.1007344200000000 S
   0.6041153200000001    0.0212787600000000    0.8231749900000002 S
   0.0034218800000000    0.4274678599999999    0.9507530400000002 S
   0.4327846400000000    0.4406662000000001    0.5959454199999999 S
   0.4288746600000001    0.4221117700000001    0.0520999800000000 S
   0.5983367700000000    0.5551724800000000    0.3748998800000001 S
   0.8204743999999999    0.6033147800000001    0.6526920400000000 S
   0.2545577300000000    0.8574814900000000    0.5660765600000001 S
   0.8660645600000001    0.7837849800000001    0.2134050500000000 S
   0.4537107700000000    0.0803439300000000    0.2842578000000001 S
  -0.0051265100000000    0.9958555000000001    0.6342094999999999 S
   0.1757116700000000    0.5513073700000000    0.4938406300000001 S
   0.7725587000000000    0.1838271700000000    0.5726579600000000 S
   0.8082295400000001    0.4974711999999999    0.1712331400000000 S
   0.8724372700000000    0.7058617800000000    0.9136780100000000 S
   0.5671762400000001    0.6095386600000000    0.8191282200000001 S
   0.1887558000000000    0.4001170299999999    0.7119549700000000 S
   0.3324241700000001   -0.0041997400000000    0.8533290700000000 S
   0.0019985100000000    0.2838123500000000    0.1973067400000000 S
   0.0722715100000000    0.2265183300000000    0.5157064600000000 S
   0.2245266900000000    0.3306601000000000    0.3007174700000000 S
   0.4678124400000001    0.7017602900000001    0.5713403900000000 S
   0.6461764800000001    0.8341663100000001    0.2985041900000000 S
   0.7042961000000000    0.4871192000000000    0.6250801800000001 S
   0.3019926800000000    0.8581074100000000    0.7839866399999998 S
   0.4971180600000000    0.3806653600000001    0.1833003800000000 S
   0.2458135500000000    0.8582440200000001    0.3171320900000000 S
   0.0933166800000000    0.5671304500000000    0.2059355900000000 S
   0.2687456700000000    0.6713697800000001    0.0355723900000000 S
   0.7388879200000001    0.0790582300000000    0.2885942100000000 S
  -0.0151072400000000    0.9572380600000000    0.3614582900000000 S
   0.6147235000000001    0.2997765400000000    0.4014184500000000 S
   0.8774001299999999    0.4150892300000000    0.4058173900000000 S
   0.4361013100000001    0.1397862100000000    0.5939401300000000 S
   0.7670723500000000    0.9338845600000001    0.0124527100000000 S
