Zn6 Ru2
1.0
  -1.8970340000000001    1.8970340000000001    7.7968089999999997
   1.8970340000000001   -1.8970340000000001    7.7968089999999997
   1.8970340000000001    1.8970340000000001   -7.7968089999999997
Zn Ru
6 2
direct
   0.6289740000000000    0.6289740000000000    0.0000000000000000 Zn
   0.3710260000000001    0.3710260000000001    0.0000000000000000 Zn
  -0.0000000000000000    0.4999999999999999    0.4999999999999999 Zn
   0.4999999999999999    0.0000000000000000    0.4999999999999999 Zn
   0.2499999999999999    0.7500000000000000    0.4999999999999999 Zn
   0.7500000000000000    0.2500000000000000    0.4999999999999999 Zn
   0.8829410000000001    0.8829410000000001    0.0000000000000001 Ru
   0.1170590000000000    0.1170590000000000    0.0000000000000000 Ru
