Cd12 Ni12
1.0
   0.0000000000000000    6.0638199999999998    6.0638199999999998
   6.0638199999999998    0.0000000000000000    6.0638199999999998
   6.0638199999999998    6.0638199999999998    0.0000000000000000
Cd Ni
12 12
direct
   0.9858950000000000    0.5141050000000000    0.9858950000000000 Cd
   0.7358950000000000    0.2641050000000000    0.7358950000000000 Cd
   0.9858950000000000    0.9858950000000000    0.5141050000000000 Cd
   0.5141050000000000    0.9858950000000000    0.9858950000000000 Cd
   0.9858950000000000    0.5141050000000000    0.5141050000000000 Cd
   0.5141050000000000    0.5141050000000000    0.9858950000000000 Cd
   0.2641049999999999    0.2641050000000000    0.7358950000000001 Cd
   0.7358950000000000    0.7358950000000000    0.2641050000000000 Cd
   0.2641049999999999    0.7358950000000001    0.2641049999999999 Cd
   0.7358950000000000    0.2641050000000000    0.2641049999999999 Cd
   0.2641050000000000    0.7358950000000000    0.7358950000000000 Cd
   0.5141050000000000    0.9858950000000000    0.5141050000000000 Cd
   0.9282780000000000    0.9282779999999999    0.9282779999999999 Ni
   0.0348330000000000    0.3217220000000000    0.3217220000000000 Ni
   0.3217220000000000    0.3217220000000000    0.0348330000000000 Ni
   0.3217220000000000    0.0348330000000000    0.3217220000000000 Ni
   0.9282779999999999    0.9282780000000000    0.2151670000000001 Ni
   0.9282779999999999    0.2151670000000000    0.9282780000000000 Ni
   0.2151670000000000    0.9282779999999999    0.9282779999999998 Ni
   0.3217220000000000    0.3217220000000000    0.3217220000000000 Ni
   0.6250000000000000    0.6250000000000000    0.1250000000000000 Ni
   0.6250000000000000    0.1250000000000000    0.6250000000000000 Ni
   0.1250000000000000    0.6250000000000000    0.6250000000000000 Ni
   0.6250000000000000    0.6250000000000000    0.6250000000000000 Ni
