Mn3 Pd5
1.0
   3.6375299999999999   -4.1199240000000001    0.0000000000000000
   3.6375299999999999    4.1199240000000001    0.0000000000000000
   0.0000000000000000    0.0000000000000000    4.0886199999999997
Mn Pd
3 5
direct
   0.0000000000000000    0.0000000000000000    0.0000000000000000 Mn
   0.2741509999999999    0.7258490000000000    0.5000000000000000 Mn
   0.7258490000000000    0.2741509999999999    0.5000000000000000 Mn
   0.5000000000000000    0.5000000000000000    0.0000000000000000 Pd
   0.5000000000000000    0.0000000000000000    0.0000000000000000 Pd
   0.0000000000000000    0.5000000000000000    0.0000000000000000 Pd
   0.2247240000000000    0.2247240000000000    0.5000000000000000 Pd
   0.7752760000000000    0.7752760000000000    0.5000000000000000 Pd
