Sn1 I4
1.0
   6.6864280000000003    0.0000000000000000    0.0000000000000000
   0.0000000000000000    6.6864280000000003    0.0000000000000000
   0.0000000000000000    0.0000000000000000    6.6864280000000003
Sn I
1 4
direct
   0.0000000000000000    0.0000000000000000    0.0000000000000000 Sn
   0.2339030000000000    0.7660970000000000    0.7660970000000000 I
   0.7660970000000000    0.2339030000000000    0.7660970000000000 I
   0.7660970000000000    0.7660970000000000    0.2339030000000000 I
   0.2339030000000000    0.2339030000000000    0.2339030000000000 I
