Pb2 Se4
1.0
  -3.2526519999999999    3.2526519999999999    3.9491299999999998
   3.2526519999999999   -3.2526519999999999    3.9491299999999998
   3.2526519999999999    3.2526519999999999   -3.9491299999999998
Pb Se
2 4
direct
   0.2500000000000000    0.2500000000000000    0.0000000000000000 Pb
   0.7500000000000000    0.7500000000000000    0.0000000000000000 Pb
   0.6309170000000000    0.1309170000000000    0.7618340000000000 Se
   0.3690830000000000    0.8690830000000000    0.2381660000000000 Se
   0.8690830000000002    0.6309170000000001    0.5000000000000001 Se
   0.1309170000000001    0.3690830000000000    0.5000000000000000 Se
