Ta3 Cu1
1.0
  -2.0065070000000000    2.0065070000000000    4.2081700000000000
   2.0065070000000000   -2.0065070000000000    4.2081700000000000
   2.0065070000000000    2.0065070000000000   -4.2081700000000000
Ta Cu
3 1
direct
   0.7500000000000000    0.2500000000000000    0.5000000000000000 Ta
   0.2500000000000000    0.7500000000000000    0.5000000000000000 Ta
   0.5000000000000000    0.5000000000000000    0.0000000000000000 Ta
   0.0000000000000000    0.0000000000000000    0.0000000000000000 Cu
