Te16 Pd36
1.0
  14.1889830000000003    0.0000000000000000    0.0000000000000000
   0.0000000000000000    7.5632159999999997    0.0000000000000000
   0.0000000000000000    0.2567320000000000    9.0349350000000008
Te Pd
16 36
direct
   0.9959610000000000    0.2461780000000000    0.8530260000000000 Te
   0.4959610000000000    0.7538220000000000    0.6469740000000000 Te
   0.0040390000000000    0.7538220000000001    0.1469740000000000 Te
   0.5040390000000000    0.2461780000000000    0.3530260000000000 Te
   0.4949780000000000    0.2969330000000000    0.8883370000000002 Te
   0.9949779999999999    0.7030670000000001    0.6116630000000000 Te
   0.5050220000000000    0.7030670000000001    0.1116630000000000 Te
   0.0050220000000000    0.2969330000000000    0.3883370000000000 Te
   0.7373950000000000    0.0479610000000000    0.6418000000000000 Te
   0.2373950000000000    0.9520390000000000    0.8582000000000000 Te
   0.2626050000000000    0.9520390000000000    0.3582000000000000 Te
   0.7626049999999999    0.0479610000000000    0.1418000000000000 Te
   0.2482370000000000    0.4610900000000000    0.5677740000000000 Te
   0.7482370000000000    0.5389100000000001    0.9322260000000000 Te
   0.7517630000000000    0.5389100000000001    0.4322260000000000 Te
   0.2517630000000000    0.4610900000000000    0.0677740000000000 Te
   0.6781850000000000    0.2066330000000000    0.8950569999999999 Pd
   0.1781850000000000    0.7933670000000002    0.6049430000000000 Pd
   0.3218150000000000    0.7933670000000000    0.1049430000000000 Pd
   0.8218149999999999    0.2066330000000000    0.3950570000000000 Pd
   0.3059350000000000    0.2762490000000000    0.8256560000000001 Pd
   0.8059350000000000    0.7237510000000000    0.6743440000000001 Pd
   0.6940650000000000    0.7237510000000001    0.1743440000000000 Pd
   0.1940650000000000    0.2762490000000001    0.3256560000000000 Pd
   0.9375420000000000    0.0392470000000000    0.6117950000000000 Pd
   0.4375420000000000    0.9607530000000000    0.8882050000000000 Pd
   0.0624580000000000    0.9607530000000000    0.3882050000000001 Pd
   0.5624580000000000    0.0392470000000000    0.1117950000000000 Pd
   0.5480250000000000    0.1101770000000000    0.6429650000000001 Pd
   0.0480250000000000    0.8898230000000001    0.8570350000000000 Pd
   0.4519750000000000    0.8898230000000001    0.3570350000000000 Pd
   0.9519750000000000    0.1101770000000000    0.1429650000000000 Pd
   0.3494790000000000    0.0160720000000000    0.6082150000000000 Pd
   0.8494790000000000    0.9839279999999999    0.8917850000000000 Pd
   0.6505210000000000    0.9839280000000000    0.3917850000000000 Pd
   0.1505210000000000    0.0160720000000000    0.1082150000000000 Pd
   0.1398730000000000    0.1691780000000000    0.6388180000000000 Pd
   0.6398729999999999    0.8308219999999999    0.8611820000000000 Pd
   0.8601270000000000    0.8308219999999999    0.3611820000000000 Pd
   0.3601270000000000    0.1691780000000000    0.1388180000000000 Pd
   0.8301180000000000    0.3446150000000000    0.7016600000000001 Pd
   0.3301180000000000    0.6553850000000000    0.7983400000000000 Pd
   0.1698820000000000    0.6553850000000001    0.2983400000000000 Pd
   0.6698820000000000    0.3446150000000001    0.2016600000000000 Pd
   0.6319170000000000    0.4997330000000000    0.6918850000000000 Pd
   0.1319170000000000    0.5002670000000000    0.8081150000000000 Pd
   0.3680830000000000    0.5002670000000000    0.3081150000000000 Pd
   0.8680830000000000    0.4997330000000001    0.1918850000000000 Pd
   0.4353570000000000    0.4148290000000001    0.6063000000000001 Pd
   0.9353569999999999    0.5851710000000000    0.8937000000000000 Pd
   0.5646430000000000    0.5851710000000001    0.3937000000000000 Pd
   0.0646430000000000    0.4148290000000000    0.1063000000000000 Pd
