Fe12 O18
1.0
   2.6937639999999998   -4.6657359999999999    0.0000000000000000
   2.6937639999999998    4.6657359999999999    0.0000000000000000
   0.0000000000000000    0.0000000000000000   14.8101129999999994
Fe O
12 18
direct
   0.0252970000000000    0.6476769999999999    0.2335430000000000 Fe
   0.6223800000000000    0.9747030000000000    0.2335430000000000 Fe
   0.3523229999999999    0.3776200000000000    0.2335430000000000 Fe
   0.3874430000000000    0.9999960000000001    0.7305710000000000 Fe
   0.6125530000000000    0.6125569999999999    0.7305710000000000 Fe
   0.0000039999999999    0.3874469999999999    0.7305710000000000 Fe
   0.0000000000000000    0.0000000000000000    0.9138090000000001 Fe
   0.0000000000000000    0.0000000000000000    0.0793390000000000 Fe
   0.0000000000000000    0.0000000000000000    0.5841900000000000 Fe
   0.3333330000000000    0.6666670000000000    0.9397260000000001 Fe
   0.6666670000000000    0.3333330000000000    0.9408290000000001 Fe
   0.0000000000000000    0.0000000000000000    0.4146640000000000 Fe
   0.3099150000000001    0.0166860000000000    0.1765310000000000 O
   0.7067710000000000    0.6900849999999998    0.1765310000000000 O
   0.9833140000000000    0.2932290000000000    0.1765310000000000 O
   0.6410180000000000    0.6371289999999999    0.8600120000000001 O
   0.9961109999999999    0.3589820000000000    0.8600120000000001 O
   0.3628710000000001    0.0038890000000000    0.8600120000000001 O
   0.0059390000000000    0.6922520000000000    0.0009360000000000 O
   0.3077480000000000    0.3136860000000000    0.0009360000000000 O
   0.6863140000000001    0.9940610000000001    0.0009360000000000 O
   0.9981300000000001    0.2590490000000000    0.5081500000000000 O
   0.7409510000000000    0.7390810000000000    0.5081500000000000 O
   0.2609190000000000    0.0018700000000000    0.5081500000000000 O
   0.0001770000000000    0.7147920000000000    0.6806350000000000 O
   0.2852080000000000    0.2853850000000000    0.6806350000000000 O
   0.7146150000000000    0.9998230000000001    0.6806350000000000 O
   0.7021600000000000    0.0004139999999999    0.3520700000000000 O
   0.2982530000000000    0.2978400000000000    0.3520700000000000 O
   0.9995859999999999    0.7017469999999999    0.3520700000000000 O
