Ce6 Se12
1.0
   8.2030159999999999  -13.4823269999999997    0.0000000000000000
   8.2030159999999999   13.4823269999999997    0.0000000000000000
 -13.9562919999999995    0.0000000000000000    7.3678039999999996
Ce Se
6 12
direct
   0.1798930000000000    0.7500000000000000    0.3201069999999999 Ce
   0.3201070000000000    0.1798930000000000    0.7500000000000000 Ce
   0.7500000000000000    0.3201070000000000    0.1798929999999999 Ce
   0.8201070000000000    0.2500000000000001    0.6798930000000000 Ce
   0.6798930000000001    0.8201070000000001    0.2499999999999999 Ce
   0.2499999999999999    0.6798930000000000    0.8201069999999999 Ce
   0.0000000000000000    0.5000000000000000    0.5000000000000000 Se
   0.5000000000000000    0.0000000000000000    0.5000000000000000 Se
   0.5000000000000000    0.5000000000000000   -0.0000000000000001 Se
   0.0000000000000000    0.0000000000000000    0.5000000000000000 Se
   0.5000000000000000   -0.0000000000000000   -0.0000000000000000 Se
  -0.0000000000000000    0.5000000000000000   -0.0000000000000000 Se
   0.9963900000000000    0.5036100000000000    0.2499999999999999 Se
   0.2500000000000000    0.9963900000000000    0.5036100000000000 Se
   0.5036100000000000    0.2500000000000000    0.9963900000000000 Se
   0.7500000000000000    0.0036100000000000    0.4963899999999999 Se
   0.4963899999999999    0.7500000000000000    0.0036099999999999 Se
   0.0036100000000000    0.4963899999999999    0.7500000000000000 Se
