Cu6 Ge2
1.0
   4.2280189999999997    0.0000000000000000    0.0000000000000000
   0.0000000000000000    4.5523850000000001    0.0000000000000000
   0.0000000000000000    0.0000000000000000    5.3131159999999999
Cu Ge
6 2
direct
   0.0000000000000000    0.1683410000000000    0.4999999999999999 Cu
   0.5000000000000000    0.8316590000000000    0.0000000000000000 Cu
   0.5000000000000000    0.3349639999999999    0.2489990000000000 Cu
   0.5000000000000000    0.3349639999999999    0.7510010000000000 Cu
   0.0000000000000000    0.6650360000000000    0.2510009999999999 Cu
   0.0000000000000000    0.6650360000000000    0.7489989999999999 Cu
   0.5000000000000000    0.8265030000000000    0.4999999999999999 Ge
   0.0000000000000000    0.1734970000000000    0.0000000000000000 Ge
