V30 O75
1.0
  12.4232448299999998    0.0747257300000000   -0.6290731500000000
   0.0427356300000000   12.9192661399999995   -0.3321175200000000
  -0.6270283700000000   -0.2887587700000000   12.0687541199999995
V O
30 75
direct
   0.7782160600000000    0.8675316500000001    0.0258133400000000 V
   0.8049974800000000    0.8361726600000000    0.3041246700000000 V
   0.8845059499999997    0.6544738000000001    0.7144709500000000 V
   0.4882131299999999    0.6113071800000000    0.0609739900000000 V
   0.7787758600000000    0.0305196200000000    0.6537147000000000 V
   0.4122775900000000    0.2069950800000000    0.7608954900000000 V
   0.3166048499999999    0.6575580400000001    0.8643576300000000 V
   0.4116432200000000    0.8149018799999999    0.4678303700000000 V
   0.8453537399999997    0.0748265800000000    0.1858151100000000 V
   0.3387713200000000    0.7600103100000002    0.2368723500000000 V
   0.2596482299999999    0.0148480500000000    0.1639118100000000 V
   0.3279143600000000    0.5913605700000000    0.5876514300000000 V
   0.7432244399999998    0.6258980299999999    0.4439563600000000 V
   0.0632475300000000    0.7859181300000001    0.8077876899999999 V
   0.0326112200000000    0.9555745600000000    0.0412965100000000 V
   0.9755686999999997    0.8840865100000003    0.5575009600000000 V
   0.1876958200000000    0.3193667399999999    0.6541381300000000 V
   0.0940463100000000    0.4405304099999999    0.1974600100000000 V
   0.0198612500000000    0.4379718900000000    0.8173985500000001 V
   0.6367169799999999    0.2021638400000000    0.0341514900000000 V
   0.7252458199999998    0.2447901800000000    0.8257454200000000 V
   0.5084176400000000    0.0025488900000000    0.5932615400000000 V
   0.6313850800000000    0.4098285200000000    0.2732859900000000 V
   0.2438583500000000    0.4512415300000000    0.9799169599999999 V
   0.0184674000000000    0.3824502700000000    0.4610041900000000 V
   0.3700566199999999    0.4864885500000000    0.3385587500000001 V
   0.8010136899999999    0.2381963900000000    0.4075637100000000 V
   0.4171188800000000    0.0761009500000000    0.0072120600000000 V
   0.6496021299999999    0.6890542199999999    0.8583770199999999 V
   0.8251016400000001    0.4052278800000001    0.0653161800000000 V
   0.2907391699999999    0.7946405400000001    0.3808180700000000 O
   0.8383131699999998    0.6255264300000001    0.5650113000000000 O
   0.2900330600000000    0.3561618800000000    0.9075181100000002 O
   0.5210279600000000    0.8558560300000001    0.6190986800000000 O
   0.0805993900000000    0.3328874600000000    0.7444357100000000 O
   0.4902318099999998    0.4117863500000001    0.3000501900000000 O
   0.1813089200000000    0.3953465000000000    0.0842914800000000 O
   0.4071979999999999    0.7426400900000001    0.9089787400000001 O
   0.8804372200000000    0.3440444100000000    0.4714865400000000 O
   0.1641510899999999    0.0200289200000000    0.0419538100000000 O
   0.4742846900000000    0.1239636500000000    0.6598175400000000 O
   0.0609674700000000    0.8794451800000000    0.1421662300000000 O
   0.7506959600000001    0.9900393699999999    0.0662223900000000 O
   0.5582649600000000    0.6943828100000001    0.7558192300000001 O
   0.3853306499999999    0.1574488000000000    0.8916251700000001 O
   0.9822141200000000    0.7012829599999999    0.8590130700000000 O
   0.6946273300000000    0.3356524699999999    0.7411601500000000 O
   0.3481453899999999    0.5637830200000000    0.9865239500000001 O
   0.4744504899999999    0.9218929800000000    0.7038375700000001 O
   0.4918326899999999    0.7899586200000001    0.3708775800000000 O
   0.7714351400000000    0.6493119700000001    0.7876323900000000 O
   0.1347292000000000    0.5065872200000001    0.8945202400000000 O
   0.4588432599999999    0.3231563100000001    0.7649610600000000 O
   0.3703210800000000    0.4924002200000000    0.4865287200000000 O
   0.5611105100000000    0.2932602900000000    0.0860253300000000 O
   0.7393454599999999    0.1744943400000000    0.1392973200000000 O
   0.9062068799999997    0.0007730900000000    0.5960324500000000 O
   0.6464357799999999    0.0230003500000000    0.5709274800000000 O
   0.2541138400000000    0.4276783700000000    0.6513367100000000 O
   0.5596459999999999    0.0834067600000000    0.0373453100000000 O
   0.7642055900000000    0.2930011700000000    0.9718576200000000 O
   0.1947049800000000    0.7261501600000001    0.8206708100000000 O
   0.3837860799999999    0.9572185200000000    0.9729977400000002 O
   0.9501651599999998    0.5267132600000001    0.7316370700000001 O
   0.6783057900000000    0.8154323700000000    0.9154621400000000 O
   0.6393685099999998    0.6844801000000000    0.4865485900000000 O
   0.7941160999999999    0.6957126000000001    0.3398353900000001 O
   0.8070766800000000    0.5153648900000001    0.0085686900000000 O
   0.0506621300000000    0.3914376200000000    0.3247939000000000 O
   0.1011591600000000    0.9124891500000002    0.5537426200000000 O
   0.9012904999999999    0.8783394600000000    0.9777439500000000 O
   0.1157401500000000    0.2898415500000000    0.5220094300000000 O
   0.0753682600000000    0.5630375000000000    0.1943323500000000 O
   0.9618735899999998    0.3916869700000000    0.1242608100000000 O
   0.9756359400000000    0.7818981699999999    0.6712185200000000 O
   0.4551991100000000    0.7169980000000001    0.1422360400000000 O
   0.5920632499999999    0.6238848900000001    0.9683236900000001 O
   0.2760847500000000    0.2155109800000000    0.6901280700000001 O
   0.7928167999999998    0.1391436100000000    0.7539135800000000 O
   0.6735176100000000    0.2961306500000000    0.3396241200000000 O
   0.4012247099999999    0.6982294999999999    0.5520059800000001 O
   0.2044989600000000    0.6260709800000002    0.5561245100000000 O
   0.3784381300000000    0.6089329700000000    0.3008101200000000 O
   0.9560785599999999    0.0622825900000000    0.0929959700000000 O
   0.6888160399999999    0.5018289200000000    0.3688402500000000 O
   0.2362282900000000    0.7088254300000000    0.1624761600000000 O
   0.2478802200000000    0.4380727300000001    0.2823174800000000 O
   0.0329151800000000    0.4939054700000001    0.5262070900000000 O
   0.6078979899999999    0.1912892300000000    0.8696962599999999 O
   0.4156407899999998    0.9663985000000002    0.4805229900000000 O
   0.9156268999999998    0.8427739999999999    0.4271411900000000 O
   0.3283855099999999    0.8921182600000001    0.1977187700000000 O
   0.5394132999999999    0.5207929500000000    0.1425773900000000 O
   0.7713092999999998    0.9301582300000001    0.7276837300000001 O
   0.9398717299999998    0.3844413500000001    0.8966521000000000 O
   0.7348135299999999    0.4105194400000000    0.1737720400000000 O
   0.3574738299999999    0.1106089400000000    0.1340304100000000 O
   0.2027155999999999    0.0601977700000000    0.2701184900000000 O
   0.6932033700000001    0.8817833700000001    0.3415386700000000 O
   0.8761190599999997    0.1744349900000000    0.3127229300000000 O
   0.7764384099999998    0.1609240700000000    0.5056610100000000 O
   0.7881605199999998    0.7998887600000000    0.1502450400000000 O
   0.8613834099999997    0.9671152000000001    0.2654521400000000 O
   0.0681870800000000    0.8988834200000000    0.8836196800000000 O
   0.3561774600000001    0.5956289900000000    0.7451656000000000 O
