Nd4 Os8
1.0
   2.6887129999999999   -4.6569880000000001    0.0000000000000000
   2.6887129999999999    4.6569880000000001    0.0000000000000000
   0.0000000000000000    0.0000000000000000    9.1165459999999996
Nd Os
4 8
direct
   0.3333330000000000    0.6666670000000000    0.4358500000000000 Nd
   0.6666670000000000    0.3333330000000000    0.5641500000000000 Nd
   0.6666670000000000    0.3333330000000000    0.9358500000000000 Nd
   0.3333330000000000    0.6666670000000000    0.0641500000000000 Nd
   0.1704640000000000    0.3409270000000000    0.7500000000000000 Os
   0.1704639999999999    0.8295360000000001    0.7500000000000000 Os
   0.3409270000000000    0.1704640000000000    0.2500000000000000 Os
   0.8295359999999999    0.6590729999999999    0.2500000000000000 Os
   0.6590729999999999    0.8295359999999999    0.7500000000000000 Os
   0.0000000000000000    0.0000000000000000    0.0000000000000000 Os
   0.8295360000000001    0.1704639999999999    0.2500000000000000 Os
   0.0000000000000000    0.0000000000000000    0.5000000000000000 Os
