Cs21 O3
1.0
   8.2637680000000007  -14.3132660000000005    0.0000000000000000
   8.2637680000000007   14.3132660000000005    0.0000000000000000
   0.0000000000000000    0.0000000000000000    9.3113060000000001
Cs O
21 3
direct
   0.4430129999999999    0.2215060000000000    0.5000000000000000 Cs
   0.4794100000000000    0.5205899999999999    0.7805299999999999 Cs
   0.7784940000000000    0.2215060000000000    0.5000000000000000 Cs
   0.4794100000000000    0.5205899999999999    0.2194700000000000 Cs
   0.8826619999999999    0.7653239999999999    0.0000000000000000 Cs
   0.1160320000000000    0.2320640000000000    0.5000000000000000 Cs
   0.4794100000000001    0.9588190000000000    0.7805299999999999 Cs
   0.5643100000000000    0.7821549999999999    0.0000000000000000 Cs
   0.4794100000000001    0.9588190000000000    0.2194700000000000 Cs
   0.2178450000000001    0.4356900000000000    0.0000000000000000 Cs
   0.3333330000000000    0.6666669999999999    0.7955830000000002 Cs
   0.7784940000000000    0.5569870000000000    0.5000000000000000 Cs
   0.6666670000000000    0.3333329999999999    0.0000000000000000 Cs
   0.7679360000000000    0.8839680000000000    0.5000000000000000 Cs
   0.8826619999999999    0.1173380000000000    0.0000000000000000 Cs
   0.2346760000000000    0.1173380000000000    0.0000000000000000 Cs
   0.3333330000000000    0.6666669999999999    0.2044170000000000 Cs
   0.0411810000000000    0.5205899999999999    0.7805299999999999 Cs
   0.1160320000000001    0.8839679999999999    0.5000000000000000 Cs
   0.2178450000000000    0.7821549999999999    0.0000000000000000 Cs
   0.0411810000000000    0.5205899999999999    0.2194700000000000 Cs
   0.4140320000000001    0.5859680000000000    0.0000000000000000 O
   0.1719360000000001    0.5859680000000000    0.0000000000000000 O
   0.4140320000000001    0.8280639999999999    0.0000000000000000 O
