Tc3 Sn1
1.0
   0.0000000000000000    3.1721940000000002    3.1721940000000002
   3.1721940000000002    0.0000000000000000    3.1721940000000002
   3.1721940000000002    3.1721940000000002    0.0000000000000000
Tc Sn
3 1
direct
   0.2500000000000000    0.2500000000000000    0.2499999999999999 Tc
   0.7500000000000000    0.7500000000000000    0.7499999999999998 Tc
   0.5000000000000000    0.5000000000000000    0.4999999999999998 Tc
   0.0000000000000000    0.0000000000000000    0.0000000000000000 Sn
