Sm4 In2
1.0
   2.7738450000000001   -4.8044399999999996    0.0000000000000000
   2.7738450000000001    4.8044399999999996    0.0000000000000000
   0.0000000000000000    0.0000000000000000    6.9119469999999996
Sm In
4 2
direct
   0.0000000000000000    0.0000000000000000    0.0000000000000000 Sm
   0.6666670000000000    0.3333330000000000    0.2500000000000000 Sm
   0.3333330000000000    0.6666670000000000    0.7500000000000000 Sm
   0.0000000000000000    0.0000000000000000    0.5000000000000000 Sm
   0.3333330000000000    0.6666670000000000    0.2500000000000000 In
   0.6666670000000000    0.3333330000000000    0.7500000000000000 In
