Sr12 Cd72
1.0
  -8.0593310000000002    8.0938590000000001    8.1474729999999997
   8.0593310000000002   -8.0938590000000001    8.1474729999999997
   8.0593310000000002    8.0938590000000001   -8.1474729999999997
Sr Cd
12 72
direct
   0.8127270000000001    0.5172990000000000    0.7045720000000001 Sr
   0.1872730000000001    0.4827010000000000    0.2954280000000000 Sr
   0.1872730000000001    0.8918450000000000    0.7045720000000000 Sr
   0.8127270000000000    0.1081550000000000    0.2954280000000000 Sr
   0.1128970000000000    0.3015160000000000    0.8113819999999999 Sr
   0.8871029999999999    0.6984839999999999    0.1886180000000000 Sr
   0.4901340000000000    0.3015160000000000    0.1886180000000000 Sr
   0.5098660000000002    0.6984840000000000    0.8113820000000000 Sr
   0.2995510000000000    0.1864980000000001    0.4860490000000001 Sr
   0.7004489999999999    0.8135019999999999    0.5139510000000000 Sr
   0.2995510000000001    0.8135019999999999    0.1130530000000001 Sr
   0.7004490000000000    0.1864980000000001    0.8869470000000000 Sr
   0.0000420000000000    0.6775540000000000    0.0023449999999999 Cd
   0.3247910000000000    0.3224460000000000    0.3224880000000000 Cd
   0.9999580000000000    0.0023030000000000    0.6775120000000000 Cd
   0.6752089999999999    0.9976969999999998    0.9976549999999998 Cd
   0.9999580000000000    0.3224459999999999    0.9976550000000000 Cd
   0.6752089999999999    0.6775540000000000    0.6775120000000000 Cd
   0.0000420000000001    0.9976970000000001    0.3224880000000000 Cd
   0.3247910000000000    0.0023030000000000    0.0023450000000000 Cd
   0.7380850000000000    0.6417940000000000    0.9037090000000000 Cd
   0.2619150000000000    0.3582060000000000    0.0962910000000000 Cd
   0.2619150000000000    0.1656240000000000    0.9037090000000000 Cd
   0.7380850000000001    0.8343760000000000    0.0962910000000000 Cd
   0.8546490000000000    0.0937640000000000    0.7608850000000000 Cd
   0.1453510000000001    0.9062360000000000    0.2391150000000000 Cd
   0.3328790000000000    0.0937640000000000    0.2391150000000000 Cd
   0.6671209999999999    0.9062359999999999    0.7608849999999999 Cd
   0.0961400000000000    0.2444630000000000    0.3406030000000000 Cd
   0.9038599999999999    0.7555369999999999    0.6593970000000000 Cd
   0.0961400000000000    0.7555370000000000    0.8516770000000000 Cd
   0.9038600000000000    0.2444630000000000    0.1483230000000000 Cd
   0.5959719999999998    0.2512539999999999    0.6552820000000000 Cd
   0.4040279999999999    0.7487460000000000    0.3447180000000000 Cd
   0.4040279999999999    0.0593100000000000    0.6552820000000000 Cd
   0.5959720000000001    0.9406900000000000    0.3447180000000000 Cd
   0.9424850000000000    0.3464490000000000    0.5960360000000000 Cd
   0.0575150000000000    0.6535510000000000    0.4039640000000000 Cd
   0.7504130000000000    0.3464490000000000    0.4039640000000000 Cd
   0.2495870000000000    0.6535510000000000    0.5960360000000000 Cd
   0.3440170000000001    0.4030540000000001    0.7470710000000002 Cd
   0.6559830000000000    0.5969460000000000    0.2529290000000000 Cd
   0.3440170000000000    0.5969460000000001    0.9409620000000000 Cd
   0.6559830000000000    0.4030540000000000    0.0590380000000000 Cd
   0.5876450000000000    0.5876450000000000    0.0000000000000000 Cd
   0.4123550000000000    0.4123550000000000    0.0000000000000000 Cd
   0.5929890000000000    0.0000000000000000    0.5929890000000000 Cd
   0.4070110000000000    0.0000000000000000    0.4070110000000000 Cd
   0.0000000000000000    0.4064150000000000    0.4064150000000000 Cd
   0.0000000000000000    0.5935850000000000    0.5935850000000000 Cd
   0.7772640000000001    0.4550160000000000    0.9194440000000002 Cd
   0.4644280000000000    0.5449840000000001    0.3222480000000000 Cd
   0.2227360000000001    0.1421800000000001    0.6777520000000001 Cd
   0.5355720000000000    0.8578200000000000    0.0805560000000000 Cd
   0.8588100000000000    0.0813510000000000    0.5404070000000000 Cd
   0.1411899999999999    0.6815969999999999    0.2225410000000000 Cd
   0.5409439999999999    0.3184029999999999    0.4595930000000000 Cd
   0.4590560000000000    0.9186490000000000    0.7774590000000000 Cd
   0.3167350000000000    0.4588320000000000    0.5420380000000000 Cd
   0.9167940000000000    0.7746970000000000    0.4579620000000000 Cd
   0.0832060000000000    0.5411680000000000    0.8579030000000001 Cd
   0.6832650000000000    0.2253030000000000    0.1420970000000000 Cd
   0.2227360000000000    0.5449840000000001    0.0805560000000000 Cd
   0.5355720000000002    0.4550160000000001    0.6777520000000001 Cd
   0.7772640000000001    0.8578200000000001    0.3222480000000000 Cd
   0.4644280000000001    0.1421800000000001    0.9194440000000002 Cd
   0.1411900000000001    0.9186490000000000    0.4595930000000000 Cd
   0.8588099999999999    0.3184029999999999    0.7774590000000000 Cd
   0.4590560000000001    0.6815970000000000    0.5404070000000000 Cd
   0.5409440000000000    0.0813510000000000    0.2225410000000000 Cd
   0.6832650000000000    0.5411680000000001    0.4579620000000000 Cd
   0.0832060000000000    0.2253030000000000    0.5420380000000000 Cd
   0.9167940000000000    0.4588320000000000    0.1420970000000000 Cd
   0.3167350000000000    0.7746970000000001    0.8579030000000001 Cd
   0.5000000000000000    0.3131390000000000    0.8131390000000001 Cd
   0.5000000000000000    0.6868610000000001    0.1868610000000000 Cd
   0.6917130000000000    0.1917130000000000    0.5000000000000000 Cd
   0.3082870000000000    0.8082870000000000    0.4999999999999999 Cd
   0.1873120000000000    0.5000000000000000    0.6873120000000000 Cd
   0.8126879999999999    0.4999999999999999    0.3126880000000000 Cd
   0.9130130000000000    0.8218880000000000    0.9088750000000001 Cd
   0.0869870000000000    0.1781120000000000    0.0911250000000000 Cd
   0.0869869999999999    0.9958620000000000    0.9088750000000001 Cd
   0.9130130000000000    0.0041380000000000    0.0911250000000000 Cd
