Li14 Ge4
1.0
   4.6071879999999998   -6.6129870000000004    0.0000000000000000
   4.6071879999999998    6.6129870000000004    0.0000000000000000
   0.0000000000000000    0.0000000000000000    4.4814670000000003
Li Ge
14 4
direct
   0.5014210000000000    0.8166680000000001    0.5000000000000000 Li
   0.4985790000000000    0.1833320000000000    0.5000000000000000 Li
   0.8166680000000001    0.5014210000000000    0.5000000000000000 Li
   0.1833320000000000    0.4985790000000000    0.5000000000000000 Li
   0.0000000000000000    0.0000000000000000    0.0000000000000000 Li
   0.5000000000000000    0.5000000000000000    0.5000000000000000 Li
   0.3399800000000000    0.3399800000000000    0.0000000000000000 Li
   0.6600200000000001    0.6600200000000001    0.0000000000000000 Li
   0.8270500000000000    0.1729500000000000    0.5000000000000000 Li
   0.1729500000000000    0.8270500000000000    0.5000000000000000 Li
   0.0203480000000000    0.3432490000000000    0.0000000000000000 Li
   0.9796520000000000    0.6567509999999999    0.0000000000000000 Li
   0.3432490000000000    0.0203480000000000    0.0000000000000000 Li
   0.6567509999999999    0.9796520000000000    0.0000000000000000 Li
   0.8445120000000000    0.8445120000000000    0.5000000000000000 Ge
   0.1554880000000000    0.1554880000000000    0.5000000000000000 Ge
   0.3215620000000001    0.6784380000000000    0.0000000000000000 Ge
   0.6784380000000000    0.3215620000000001    0.0000000000000000 Ge
