Na5 Si34
1.0
   9.0596409999999992   -5.2274560000000001    0.0000000000000000
   9.0596409999999992    5.2274560000000001    0.0000000000000000
   6.0433740000000000    0.0000000000000000    8.5370380000000008
Na Si
5 34
direct
   0.3749870000000000    0.3749870000000000    0.3749870000000000 Na
   0.6250129999999998    0.6250129999999999    0.6250130000000000 Na
   0.5000000000000000   -0.0000000000000000    0.0000000000000000 Na
   0.0000000000000000    0.0000000000000000    0.5000000000000000 Na
  -0.0000000000000000    0.5000000000000000    0.0000000000000000 Na
   0.7819570000000000    0.7819570000000000    0.7819570000000001 Si
   0.1550579999999998    0.7821950000000000    0.7821950000000000 Si
   0.7821949999999999    0.7821950000000000    0.1550580000000000 Si
   0.7821950000000000    0.1550579999999999    0.7821950000000000 Si
   0.2180429999999999    0.2180430000000000    0.2180430000000000 Si
   0.8449419999999999    0.2178050000000000    0.2178050000000000 Si
   0.2178049999999999    0.2178050000000000    0.8449420000000000 Si
   0.2178049999999999    0.8449420000000000    0.2178050000000000 Si
   0.8754870000000000    0.8754870000000000    0.8754870000000001 Si
   0.1245130000000000    0.1245130000000000    0.1245130000000000 Si
   0.6283409999999999    0.0060380000000000    0.6283410000000000 Si
   0.2357379999999999    0.6292710000000000    0.0063740000000000 Si
   0.0063740000000000    0.6292710000000001    0.2357380000000000 Si
   0.6291809999999999    0.2361089999999999    0.6291810000000000 Si
   0.6292710000000000    0.0063740000000000    0.2357380000000000 Si
   0.0060379999999999    0.6283410000000000    0.6283410000000000 Si
   0.2361089999999998    0.6291810000000000    0.6291810000000000 Si
   0.6292709999999999    0.2357380000000000    0.0063740000000000 Si
   0.2357380000000000    0.0063740000000000    0.6292710000000000 Si
   0.6291809999999998    0.6291809999999999    0.2361090000000000 Si
   0.6283410000000000    0.6283410000000001    0.0060380000000000 Si
   0.0063740000000000    0.2357380000000000    0.6292710000000000 Si
   0.3716589999999999    0.9939620000000001    0.3716590000000000 Si
   0.7642619999999999    0.3707289999999999    0.9936260000000001 Si
   0.9936259999999999    0.3707290000000000    0.7642620000000001 Si
   0.3708189999999998    0.7638909999999998    0.3708190000000000 Si
   0.3707289999999999    0.9936260000000001    0.7642620000000001 Si
   0.9939619999999999    0.3716590000000000    0.3716590000000000 Si
   0.7638909999999997    0.3708189999999999    0.3708190000000000 Si
   0.3707289999999998    0.7642619999999999    0.9936260000000001 Si
   0.7642619999999998    0.9936259999999999    0.3707290000000000 Si
   0.3708190000000000    0.3708190000000001    0.7638910000000000 Si
   0.3716589999999999    0.3716590000000000    0.9939620000000000 Si
   0.9936259999999997    0.7642620000000000    0.3707290000000000 Si
