La1 Ge5
1.0
  -2.0261200000000001    3.1711640000000001    5.0278200000000002
   2.0261200000000001   -3.1711640000000001    5.0278200000000002
   2.0261200000000001    3.1711640000000001   -5.0278200000000002
La Ge
1 5
direct
   0.0000000000000000    0.0000000000000000    0.0000000000000000 La
   0.4698109999999999    0.6720729999999999    0.7977379999999999 Ge
   0.5301890000000000    0.3279270000000000    0.2022620000000000 Ge
   0.1256660000000000    0.3279269999999999    0.7977379999999999 Ge
   0.8743340000000001    0.6720730000000001    0.2022620000000001 Ge
   0.5000000000000000    0.0000000000000000    0.5000000000000000 Ge
