Zn4 P16
1.0
   5.0459059999999996    0.0000000000000000    0.0000000000000000
   0.0000000000000000    5.0459059999999996    0.0000000000000000
   0.0000000000000000    0.0000000000000000   14.6336680000000001
Zn P
4 16
direct
   0.8019799999999999    0.8019799999999999    0.5000000000000000 Zn
   0.6980199999999999    0.3019800000000000    0.7500000000000000 Zn
   0.3019800000000000    0.6980199999999999    0.2500000000000000 Zn
   0.1980200000000000    0.1980200000000000    0.0000000000000000 Zn
   0.9238809999999998    0.3198309999999999    0.2990460000000000 P
   0.0761190000000000    0.6801689999999999    0.7990460000000001 P
   0.3198309999999999    0.9238809999999998    0.7009540000000000 P
   0.8198309999999999    0.5761189999999999    0.0490460000000000 P
   0.0984550000000000    0.9878380000000000    0.3748150000000000 P
   0.5121619999999999    0.5984550000000000    0.6248150000000000 P
   0.4878380000000000    0.4015450000000000    0.1248150000000000 P
   0.5984550000000000    0.5121619999999999    0.3751850000000000 P
   0.4015450000000000    0.4878380000000000    0.8751850000000001 P
   0.9015450000000000    0.0121620000000000    0.8748150000000000 P
   0.9878380000000000    0.0984550000000000    0.6251850000000001 P
   0.0121620000000000    0.9015450000000000    0.1251850000000000 P
   0.6801689999999999    0.0761190000000000    0.2009540000000000 P
   0.4238810000000000    0.1801690000000000    0.4509540000000000 P
   0.5761189999999999    0.8198309999999999    0.9509540000000000 P
   0.1801690000000000    0.4238810000000000    0.5490460000000001 P
