Sb6 Pb2
1.0
   3.3855670000000000   -5.8639729999999997    0.0000000000000000
   3.3855670000000000    5.8639729999999997    0.0000000000000000
   0.0000000000000000    0.0000000000000000    5.8422900000000002
Sb Pb
6 2
direct
   0.1613480000000000    0.3226970000000000    0.2500000000000000 Sb
   0.6773030000000000    0.8386520000000000    0.2500000000000000 Sb
   0.1613480000000000    0.8386520000000000    0.2500000000000000 Sb
   0.8386520000000000    0.6773030000000000    0.7500000000000001 Sb
   0.3226970000000000    0.1613480000000000    0.7500000000000001 Sb
   0.8386520000000000    0.1613480000000000    0.7500000000000001 Sb
   0.3333330000000000    0.6666670000000000    0.7500000000000001 Pb
   0.6666670000000000    0.3333330000000000    0.2500000000000000 Pb
