Sc2 Br6
1.0
   5.1613740000000004   -8.9397620000000000    0.0000000000000000
   5.1613740000000004    8.9397620000000000    0.0000000000000000
   0.0000000000000000    0.0000000000000000    3.5204990000000000
Sc Br
2 6
direct
   0.3333330000000000    0.6666670000000000    0.7499999999999999 Sc
   0.6666670000000000    0.3333330000000000    0.2500000000000000 Sc
   0.2202230000000000    0.4404460000000000    0.2500000000000000 Br
   0.5595540000000000    0.7797770000000001    0.2500000000000000 Br
   0.2202229999999999    0.7797770000000001    0.2500000000000000 Br
   0.7797770000000001    0.5595540000000000    0.7499999999999999 Br
   0.4404460000000000    0.2202230000000000    0.7499999999999999 Br
   0.7797770000000001    0.2202229999999999    0.7499999999999999 Br
