Te5 Pd21
1.0
   0.0000000000000000    6.2806790000000001    6.2806790000000001
   6.2806790000000001    0.0000000000000000    6.2806790000000001
   6.2806790000000001    6.2806790000000001    0.0000000000000000
Te Pd
5 21
direct
   0.2500000000000000    0.2500000000000000    0.2499999999999999 Te
   0.6252660000000001    0.6252660000000001    0.1242029999999999 Te
   0.6252660000000001    0.1242030000000000    0.6252659999999999 Te
   0.1242030000000000    0.6252660000000001    0.6252659999999999 Te
   0.6252660000000001    0.6252660000000001    0.6252659999999999 Te
   0.3704460000000001    0.3704460000000001    0.8886609999999999 Pd
   0.3704460000000001    0.8886610000000000    0.3704459999999999 Pd
   0.8886610000000000    0.3704460000000001    0.3704459999999999 Pd
   0.3704460000000001    0.3704460000000001    0.3704459999999999 Pd
   0.8756429999999999    0.8756430000000001    0.3730709999999998 Pd
   0.8756429999999999    0.3730710000000002    0.8756429999999997 Pd
   0.3730710000000002    0.8756429999999999    0.8756429999999997 Pd
   0.8756430000000001    0.8756429999999999    0.8756429999999996 Pd
   0.2477380000000001    0.2477380000000001    0.7522619999999999 Pd
   0.7522620000000001    0.2477380000000001    0.7522620000000000 Pd
   0.2477380000000000    0.7522620000000001    0.7522620000000000 Pd
   0.7522620000000000    0.7522620000000000    0.2477379999999998 Pd
   0.2477380000000001    0.7522620000000000    0.2477379999999998 Pd
   0.7522620000000000    0.2477380000000001    0.2477379999999998 Pd
   0.9988750000000000    0.9988750000000000    0.5011249999999999 Pd
   0.5011250000000002    0.9988750000000001    0.5011249999999999 Pd
   0.9988750000000001    0.5011250000000002    0.5011249999999999 Pd
   0.5011250000000002    0.5011250000000002    0.9988749999999998 Pd
   0.9988750000000000    0.5011250000000003    0.9988749999999998 Pd
   0.5011250000000004    0.9988750000000000    0.9988749999999996 Pd
   0.0000000000000000    0.0000000000000000    0.0000000000000000 Pd
