Yb20 Sn16
1.0
   7.9739449999999996    0.0000000000000000    0.0000000000000000
   0.0000000000000000    8.4203759999999992    0.0000000000000000
   0.0000000000000000    0.0000000000000000   16.4275540000000007
Yb Sn
20 16
direct
   0.6462300000000000    0.1788780000000000    0.6240330000000001 Yb
   0.1462300000000000    0.3211220000000000    0.8759670000000001 Yb
   0.3537700000000000    0.8211220000000001    0.1240330000000000 Yb
   0.8537700000000000    0.6788780000000000    0.3759670000000000 Yb
   0.3537700000000000    0.8211220000000001    0.3759670000000000 Yb
   0.8537700000000000    0.6788780000000000    0.1240330000000000 Yb
   0.6462300000000000    0.1788780000000000    0.8759670000000001 Yb
   0.1462300000000000    0.3211220000000000    0.6240330000000001 Yb
   0.4827820000000000    0.6822450000000001    0.5986820000000000 Yb
   0.9827820000000002    0.8177550000000000    0.9013180000000000 Yb
   0.5172180000000000    0.3177550000000000    0.0986820000000000 Yb
   0.0172180000000000    0.1822450000000000    0.4013180000000000 Yb
   0.5172180000000000    0.3177550000000000    0.4013180000000000 Yb
   0.0172180000000000    0.1822450000000000    0.0986820000000000 Yb
   0.4827820000000000    0.6822450000000001    0.9013180000000000 Yb
   0.9827820000000002    0.8177550000000000    0.5986820000000000 Yb
   0.8166540000000001    0.4989790000000001    0.7500000000000000 Yb
   0.3166540000000000    0.0010210000000000    0.7500000000000000 Yb
   0.1833460000000000    0.5010210000000000    0.2500000000000000 Yb
   0.6833460000000001    0.9989790000000000    0.2500000000000000 Yb
   0.6783080000000000    0.9736270000000001    0.4642020000000001 Sn
   0.1783080000000000    0.5263730000000000    0.0357980000000000 Sn
   0.3216920000000000    0.0263730000000000    0.9642020000000000 Sn
   0.8216920000000000    0.4736270000000000    0.5357980000000000 Sn
   0.3216920000000000    0.0263730000000000    0.5357980000000000 Sn
   0.8216920000000000    0.4736270000000000    0.9642020000000000 Sn
   0.6783080000000000    0.9736270000000001    0.0357980000000000 Sn
   0.1783080000000000    0.5263730000000000    0.4642020000000001 Sn
   0.4410540000000001    0.3910030000000000    0.7500000000000000 Sn
   0.9410539999999999    0.1089970000000000    0.7500000000000000 Sn
   0.5589460000000001    0.6089970000000001    0.2500000000000000 Sn
   0.0589460000000000    0.8910030000000000    0.2500000000000000 Sn
   0.6907740000000001    0.8614889999999999    0.7500000000000000 Sn
   0.1907740000000000    0.6385110000000002    0.7500000000000000 Sn
   0.3092260000000001    0.1385110000000000    0.2500000000000000 Sn
   0.8092260000000000    0.3614890000000001    0.2500000000000000 Sn
