Pr1 Cd3
1.0
   0.0000000000000000    3.6810610000000001    3.6810610000000001
   3.6810610000000001    0.0000000000000000    3.6810610000000001
   3.6810610000000001    3.6810610000000001    0.0000000000000000
Pr Cd
1 3
direct
   0.0000000000000000    0.0000000000000000    0.0000000000000000 Pr
   0.2500000000000000    0.2500000000000000    0.2500000000000000 Cd
   0.7500000000000000    0.7500000000000001    0.7500000000000001 Cd
   0.5000000000000000    0.5000000000000000    0.5000000000000000 Cd
