Mg7 Sc1
1.0
   0.0000000000000000    4.5309340000000002    4.5309340000000002
   4.5309340000000002    0.0000000000000000    4.5309340000000002
   4.5309340000000002    4.5309340000000002    0.0000000000000000
Mg Sc
7 1
direct
   0.5000000000000000    0.5000000000000000    0.5000000000000000 Mg
  -0.0000000000000000    0.0000000000000000    0.5000000000000000 Mg
   0.5000000000000000   -0.0000000000000000    0.5000000000000000 Mg
  -0.0000000000000000    0.5000000000000000    0.5000000000000000 Mg
   0.5000000000000000    0.5000000000000000    0.0000000000000000 Mg
  -0.0000000000000000    0.5000000000000000    0.0000000000000000 Mg
   0.5000000000000000   -0.0000000000000000    0.0000000000000000 Mg
   0.0000000000000000    0.0000000000000000    0.0000000000000000 Sc
