Sr6 Sn10
1.0
   4.3343170000000004   -5.3864320000000001    0.0000000000000000
   4.3343170000000004    5.3864320000000001    0.0000000000000000
   0.0000000000000000    0.0000000000000000   11.0072539999999996
Sr Sn
6 10
direct
   0.1459150000000000    0.1459150000000000    0.2500000000000000 Sr
   0.8540850000000000    0.8540850000000000    0.7499999999999999 Sr
   0.2972230000000000    0.7027770000000000    0.0000000000000000 Sr
   0.7027770000000000    0.2972230000000000    0.5000000000000000 Sr
   0.7027770000000000    0.2972230000000000    0.0000000000000000 Sr
   0.2972230000000000    0.7027770000000000    0.5000000000000000 Sr
   0.5425300000000000    0.5425300000000000    0.2500000000000000 Sn
   0.4574700000000000    0.4574700000000000    0.7499999999999999 Sn
   0.9923040000000001    0.5914920000000001    0.2500000000000000 Sn
   0.0076960000000000    0.4085080000000000    0.7499999999999999 Sn
   0.5914920000000001    0.9923040000000001    0.2500000000000000 Sn
   0.4085080000000000    0.0076960000000000    0.7499999999999999 Sn
   0.1878070000000000    0.1878070000000000    0.5532350000000000 Sn
   0.8121930000000002    0.8121930000000002    0.0532350000000000 Sn
   0.1878070000000000    0.1878070000000000    0.9467649999999999 Sn
   0.8121930000000002    0.8121930000000002    0.4467650000000001 Sn
