La4 H10
1.0
  -2.7859289999999999    2.7859289999999999    5.6705699999999997
   2.7859289999999999   -2.7859289999999999    5.6705699999999997
   2.7859289999999999    2.7859289999999999   -5.6705699999999997
La H
4 10
direct
   0.5047100000000000    0.0047100000000000    0.5000000000000000 La
   0.2452900000000000    0.2452900000000000    0.0000000000000000 La
   0.9952899999999999    0.4952899999999999    0.5000000000000000 La
   0.7547099999999999    0.7547099999999999    0.0000000000000000 La
   0.6060609999999998    0.6249999999999999    0.4810610000000001 H
   0.1439390000000000    0.1250000000000000    0.5189390000000000 H
   0.6060610000000001    0.1250000000000001    0.9810610000000001 H
   0.1439390000000000    0.6249999999999999    0.0189390000000000 H
   0.3750000000000000    0.3939390000000000    0.5189390000000000 H
   0.8750000000000000    0.8560610000000000    0.4810610000000001 H
   0.8749999999999999    0.3939389999999999    0.0189390000000000 H
   0.3750000000000001    0.8560610000000001    0.9810610000000001 H
   0.7500000000000001    0.2499999999999999    0.5000000000000001 H
   0.0000000000000000    0.0000000000000000    0.0000000000000000 H
