La8 Au4
1.0
   5.1385759999999996    0.0000000000000000    0.0000000000000000
   0.0000000000000000    7.4642749999999998    0.0000000000000000
   0.0000000000000000    0.0000000000000000    9.6412460000000006
La Au
8 4
direct
   0.2500000000000000    0.8432510000000000    0.9207770000000000 La
   0.2500000000000000    0.3432510000000000    0.5792230000000000 La
   0.7500000000000000    0.1567490000000000    0.0792230000000000 La
   0.7500000000000000    0.6567490000000000    0.4207770000000000 La
   0.2500000000000000    0.4905010000000000    0.1761580000000000 La
   0.2500000000000000    0.9905010000000000    0.3238420000000000 La
   0.7500000000000000    0.5094990000000000    0.8238420000000000 La
   0.7500000000000000    0.0094990000000000    0.6761580000000000 La
   0.2500000000000000    0.2543500000000000    0.8935420000000001 Au
   0.2500000000000000    0.7543500000000001    0.6064580000000001 Au
   0.7500000000000000    0.7456500000000000    0.1064580000000000 Au
   0.7500000000000000    0.2456500000000000    0.3935420000000000 Au
