Sr1 Au5
1.0
   2.8626719999999999   -4.9582930000000003    0.0000000000000000
   2.8626719999999999    4.9582930000000003    0.0000000000000000
   0.0000000000000000    0.0000000000000000    4.6750970000000001
Sr Au
1 5
direct
   0.0000000000000000    0.0000000000000000    0.0000000000000000 Sr
   0.6666669999999999    0.3333330000000000    0.0000000000000000 Au
   0.4999999999999999   -0.0000000000000000    0.5000000000000000 Au
   0.4999999999999999    0.5000000000000000    0.5000000000000000 Au
  -0.0000000000000001    0.5000000000000000    0.5000000000000000 Au
   0.3333329999999999    0.6666670000000000    0.0000000000000000 Au
