Bi2 O4
1.0
   3.0322540000000000    3.0414859999999999    0.0000000000000000
  -3.0322540000000000    3.0414859999999999    0.0000000000000000
   0.0000000000000000    2.9174579999999999    5.9228940000000003
Bi O
2 4
direct
   0.1293580000000002    0.8706420000000001    0.2500000000000000 Bi
   0.8706419999999999    0.1293580000000000    0.7500000000000000 Bi
   0.0757520000000001    0.3155770000000001    0.3630120000000000 O
   0.3155770000000001    0.0757520000000001    0.8630120000000000 O
   0.6844230000000002    0.9242480000000002    0.1369880000000000 O
   0.9242480000000001    0.6844230000000001    0.6369880000000000 O
