Ta2 Sb4
1.0
   1.8462179999999999    5.1745799999999997    0.0000000000000000
  -1.8462179999999999    5.1745799999999997    0.0000000000000000
   0.0000000000000000    4.2457089999999997    7.2367119999999998
Ta Sb
2 4
direct
   0.1507270000000000    0.1507270000000000    0.3113969999999999 Ta
   0.8492729999999999    0.8492729999999999    0.6886030000000000 Ta
   0.8515890000000000    0.8515890000000000    0.0347790000000000 Sb
   0.1484110000000000    0.1484110000000000    0.9652209999999999 Sb
   0.5947610000000000    0.5947610000000000    0.6124680000000000 Sb
   0.4052389999999999    0.4052389999999999    0.3875320000000000 Sb
