Mg2 Zn4
1.0
   1.5208889999999999    5.1740659999999998    0.0000000000000000
  -1.5208889999999999    5.1740659999999998    0.0000000000000000
   0.0000000000000000    1.3658600000000001    6.6098670000000004
Mg Zn
2 4
direct
   0.6180610000000000    0.6180610000000000    0.2668000000000000 Mg
   0.9400020000000002    0.9400020000000002    0.6175450000000000 Mg
   0.9963280000000000    0.9963280000000000    0.0011100000000000 Zn
   0.3361040000000000    0.3361040000000000    0.3293200000000000 Zn
   0.6660869999999999    0.6660869999999999    0.6724020000000001 Zn
   0.2767510000000001    0.2767510000000001    0.9461559999999999 Zn
