Si4 Os4
1.0
   4.7941010000000004    0.0000000000000000    0.0000000000000000
   0.0000000000000000    4.7941010000000004    0.0000000000000000
   0.0000000000000000    0.0000000000000000    4.7941010000000004
Si Os
4 4
direct
   0.1645500000000000    0.3354500000000001    0.6645500000000000 Si
   0.3354500000000001    0.6645500000000000    0.1645500000000000 Si
   0.6645500000000000    0.1645500000000000    0.3354500000000001 Si
   0.8354500000000000    0.8354500000000000    0.8354500000000000 Si
   0.8771780000000000    0.6228220000000000    0.3771780000000000 Os
   0.6228220000000000    0.3771780000000000    0.8771780000000000 Os
   0.3771780000000000    0.8771780000000000    0.6228220000000000 Os
   0.1228220000000000    0.1228220000000000    0.1228220000000000 Os
