V4 O8
1.0
   3.0361430000000000    0.0000000000000000    0.0000000000000000
   0.0000000000000000    4.8135620000000001    0.0000000000000000
   0.0000000000000000    0.0000000000000000    9.1277430000000006
V O
4 8
direct
   0.2500000000000000    0.4253419999999999    0.6358490000000000 V
   0.2500000000000000    0.0746580000000000    0.1358490000000000 V
   0.7500000000000001    0.5746580000000001    0.3641510000000000 V
   0.7500000000000001    0.9253420000000001    0.8641510000000000 V
   0.7500000000000001    0.2898110000000000    0.5165120000000000 O
   0.2500000000000000    0.7898110000000000    0.9834880000000001 O
   0.7500000000000001    0.2101890000000000    0.0165120000000000 O
   0.2500000000000000    0.7101890000000001    0.4834880000000000 O
   0.7500000000000001    0.8786390000000001    0.2380640000000000 O
   0.7500000000000001    0.6213610000000001    0.7380640000000001 O
   0.2500000000000000    0.1213610000000000    0.7619359999999999 O
   0.2500000000000000    0.3786390000000000    0.2619360000000000 O
