V2 Cl6
1.0
   6.7809369999999998   -3.0461920000000000    0.0000000000000000
   6.7809369999999998    3.0461920000000000    0.0000000000000000
   5.4125009999999998    0.0000000000000000    5.0956089999999996
V Cl
2 6
direct
   0.3333339999999999    0.3333340000000000    0.3333340000000000 V
   0.6666659999999998    0.6666659999999999    0.6666660000000000 V
   0.7105819999999999    0.0691810000000000    0.4278450000000000 Cl
   0.0691809999999999    0.4278449999999999    0.7105820000000000 Cl
   0.5721550000000000    0.2894180000000000    0.9308190000000000 Cl
   0.9308189999999997    0.5721550000000000    0.2894180000000000 Cl
   0.2894179999999998    0.9308190000000001    0.5721550000000000 Cl
   0.4278449999999999    0.7105820000000000    0.0691810000000000 Cl
