Ti6 O3
1.0
   2.9515880000000001    0.0000000000000000    0.0000000000000000
   0.0000000000000000    4.6624819999999998    0.0000000000000000
   0.0000000000000000    0.3009580000000000    8.2463160000000002
Ti O
6 3
direct
   0.5000000000000000    0.2646300000000000    0.0855970000000000 Ti
   0.5000000000000000    0.7457819999999999    0.5716400000000000 Ti
   0.5000000000000000    0.7353699999999999    0.9144030000000000 Ti
   0.5000000000000000    0.2542180000000000    0.4283600000000000 Ti
   0.0000000000000000    0.2506710000000000    0.7570740000000000 Ti
   0.0000000000000000    0.7493290000000000    0.2429260000000000 Ti
   0.0000000000000000    0.2929700000000000    0.2585750000000000 O
   0.0000000000000000    0.7070300000000000    0.7414250000000000 O
   0.0000000000000000    0.0000000000000000    0.0000000000000000 O
