I4 N16
1.0
   5.0067389999999996    0.0000000000000000    0.0000000000000000
   0.0000000000000000    6.9163220000000001    0.0000000000000000
   0.0000000000000000    0.0000000000000000    8.6811190000000007
I N
4 16
direct
   0.9667569999999999    0.4896230000000000    0.4279170000000000 I
   0.5332430000000000    0.5103770000000000    0.9279170000000001 I
   0.4667570000000000    0.0103770000000000    0.5720830000000000 I
   0.0332430000000000    0.9896230000000000    0.0720830000000000 I
   0.0240270000000000    0.0524780000000000    0.5350010000000001 N
   0.4759730000000000    0.9475220000000000    0.0350010000000000 N
   0.5240270000000000    0.4475220000000000    0.4649990000000001 N
   0.9759729999999999    0.5524780000000000    0.9649990000000001 N
   0.9956259999999999    0.9102390000000000    0.6311920000000001 N
   0.5043740000000000    0.0897610000000000    0.1311920000000000 N
   0.4956260000000000    0.5897610000000001    0.3688080000000001 N
   0.0043740000000000    0.4102390000000000    0.8688080000000000 N
   0.7202930000000000    0.6757090000000000    0.3104140000000000 N
   0.7797070000000000    0.3242910000000000    0.8104140000000001 N
   0.2202930000000000    0.8242910000000000    0.6895860000000000 N
   0.2797070000000000    0.1757090000000000    0.1895860000000000 N
   0.2646580000000000    0.6643969999999999    0.3224960000000000 N
   0.2353420000000000    0.3356030000000000    0.8224960000000001 N
   0.7646579999999999    0.8356030000000000    0.6775040000000000 N
   0.7353420000000001    0.1643970000000000    0.1775040000000000 N
