Ce4 Se8
1.0
   0.0000000000000000    6.0687910000000000    6.0687910000000000
   6.0687910000000000    0.0000000000000000    6.0687910000000000
   6.0687910000000000    6.0687910000000000    0.0000000000000000
Ce Se
4 8
direct
   0.1250000000000000    0.1250000000000000    0.1250000000000000 Ce
   0.1250000000000000    0.1250000000000000    0.6250000000000000 Ce
   0.1250000000000000    0.6250000000000000    0.1250000000000000 Ce
   0.6250000000000000    0.1250000000000000    0.1250000000000000 Ce
   0.8878720000000001    0.8878720000000000    0.8878720000000000 Se
   0.8878720000000000    0.8878720000000000    0.3363830000000000 Se
   0.8878720000000000    0.3363830000000000    0.8878720000000001 Se
   0.3363830000000001    0.8878720000000000    0.8878719999999999 Se
   0.3621280000000000    0.3621280000000000    0.3621280000000000 Se
   0.3621279999999999    0.3621280000000001    0.9136170000000001 Se
   0.3621279999999999    0.9136170000000001    0.3621280000000001 Se
   0.9136170000000000    0.3621280000000000    0.3621280000000001 Se
