V30 O75
1.0
  12.2607953900000002    0.3461234800000000   -0.1899296500000000
   0.3308965700000000   12.3320310899999992    0.2145941100000000
  -0.1848127500000000    0.2261546400000000   12.0561029400000006
V O
30 75
direct
   0.0626553200000000    0.4942230299999998    0.8387285200000000 V
   0.9605609400000000    0.8573328299999999    0.1119705200000000 V
   0.4562402699999999    0.9992176799999999    0.5043346700000000 V
   0.6147591099999999    0.3459172899999999    0.8262006900000000 V
   0.6683223499999998    0.5193703300000000    0.5875390400000000 V
   0.5028415799999999    0.9511971999999999    0.7859303100000000 V
   0.2969407199999999    0.9935275500000001    0.9606524200000000 V
   0.8946508599999999    0.3529618900000000    0.5029006799999999 V
   0.9467652699999999    0.0664538400000000    0.9228807400000001 V
   0.4182675199999999    0.6199947599999999    0.0046247100000000 V
   0.3377531200000000    0.1203802100000000    0.3417265000000000 V
   0.3927826699999999    0.6353720199999999    0.7166077800000000 V
   0.6475700599999999    0.7355451199999999    0.7163943400000000 V
   0.7653301199999999    0.9263120999999997    0.7605731300000000 V
   0.1034413500000000    0.3781949900000000    0.3038204300000000 V
   0.1123192300000000    0.9714722299999998    0.3441965000000000 V
   0.9655180899999999    0.8688847899999999    0.5813462400000000 V
   0.7476236099999999    0.9694779300000000    0.2796486100000000 V
   0.9371607999999998    0.6000907800000000    0.0826304000000000 V
   0.4700124300000000    0.5481121299999999    0.3796149400000000 V
   0.1888228399999999    0.8111144100000000    0.7744704099999999 V
   0.5511541700000000    0.1743396100000000    0.2131236700000000 V
   0.7787346200000000    0.7301607199999999    0.4310998600000000 V
   0.9038290699999999    0.1846179200000000    0.2945362400000000 V
   0.0456976400000000    0.2393664000000000    0.7357989400000001 V
   0.2827697600000000    0.7788529999999999    0.1273679200000000 V
   0.3497358999999999    0.7963790099999999    0.3827298599999999 V
   0.1004342000000000    0.6662326499999999    0.2999411100000000 V
   0.3173351899999999    0.4484284799999999    0.1680228800000000 V
   0.6839713499999999    0.5037208499999999    0.0550548600000000 V
   0.7924598299999999    0.5963988799999999    0.0508622100000000 O
   0.3893641400000000    0.4572304899999999    0.2995110100000000 O
   0.8381067800000001    0.1751744400000000    0.1780002800000000 O
   0.4427552000000000    0.8529759999999998    0.4798972200000000 O
   0.0269028900000000    0.9392780199999999    0.4790525100000000 O
   0.1649512300000000    0.7746530699999999    0.0628833000000000 O
   0.0053885900000000    0.5671286299999999    0.9646718300000001 O
   0.5260137600000000    0.6561506299999998    0.6658011800000000 O
   0.6681147100000002    0.2231741300000000    0.8070365700000000 O
   0.2301124900000000    0.7230972699999998    0.2644354400000000 O
   0.3615463699999999    0.1254300500000000    0.4879672800000001 O
   0.2293191299999999    0.8814403200000001    0.4094210799999999 O
   0.8638678799999999    0.9484055899999998    0.6515708800000000 O
   0.7875219300000001    0.4531154600000000    0.5381551100000000 O
   0.3052876899999999    0.7607900699999999    0.7026931400000000 O
   0.6820664000000000    0.4250350500000000    0.9383846700000001 O
   0.8892376100000000    0.7657352999999999    0.5324436800000001 O
   0.0669858400000000    0.8310225199999998    0.6836501800000000 O
   0.2930743900000000    0.9258254799999999    0.0948005500000000 O
   0.7275747199999999    0.6180028399999999    0.7005200899999999 O
   0.5558086700000000    0.4899597700000000    0.4934401800000000 O
   0.3915710400000000    0.3882358499999999    0.0780262500000000 O
   0.4343349300000000    0.9984599400000000    0.9029056299999999 O
   0.2123473000000000    0.0672934600000000    0.2968790900000000 O
   0.8403407499999999    0.6589220299999999    0.3392492500000000 O
   0.6363659699999999    0.0005361000000000    0.7684445900000000 O
   0.1282897000000000    0.5277363500000000    0.3244565700000000 O
   0.5669170100000001    0.2200309200000000    0.0863589800000000 O
   0.6780126200000001    0.8335224299999999    0.6250908700000000 O
   0.7479614700000000    0.7995624699999998    0.8212893999999999 O
   0.8937858799999998    0.1749828300000000    0.9723026800000000 O
   0.6308347700000000    0.0317570500000000    0.2198481600000000 O
   0.0008896200000000    0.7068041099999999    0.1820280200000000 O
   0.9079571299999999    0.7853278599999998    0.0133392700000000 O
   0.0264666700000000    0.1064088100000000    0.8099218100000000 O
   0.8091989900000000    0.0570259600000000    0.3604078800000001 O
   0.3946111999999999    0.7580689499999999    0.0163860300000000 O
   0.5493193500000000    0.5865670600000000    0.0515902100000000 O
   0.1661187800000000    0.2311311700000000    0.6863470699999999 O
   0.0103588800000000    0.0795770300000000    0.3237957700000000 O
   0.4049875399999999    0.5917849199999999    0.8643255199999998 O
   0.3148688599999999    0.5927026500000000    0.1051531500000000 O
   0.5813336099999998    0.0308232500000000    0.5100326900000000 O
   0.6853027700000000    0.6510044299999999    0.4941955599999999 O
   0.4306526999999999    0.9793058499999999    0.6631265600000000 O
   0.2205782400000000    0.9277339699999999    0.8542145500000000 O
   0.4314126399999999    0.0115206800000000    0.3405565300000000 O
   0.0322575200000000    0.3454043799999999    0.8256343300000001 O
   0.4001105599999999    0.8144523899999999    0.2554140400000000 O
   0.5470092700000000    0.6071169500000000    0.2932348500000000 O
   0.9470218999999998    0.2725337899999999    0.6189359300000000 O
   0.0754290700000000    0.8938346699999999    0.2396101500000000 O
   0.6179475399999999    0.2476583199999999    0.2989486300000000 O
   0.1958763200000000    0.4997838600000000    0.8428839400000000 O
   0.1921000399999999    0.3039373400000000    0.3801011100000000 O
   0.1898219800000000    0.3889773100000000    0.1762645700000000 O
   0.0065562700000000    0.9733648999999998    0.0328177000000000 O
   0.9640389700000001    0.4967966600000000    0.1692472100000000 O
   0.4824173999999999    0.3447878799999999    0.8373597800000001 O
   0.3410493600000000    0.5439061199999999    0.6441090000000000 O
   0.7173717400000000    0.8545133999999999    0.3650655800000000 O
   0.8368691299999999    0.9879780000000000    0.8652157300000001 O
   0.9955505399999999    0.4093381500000000    0.4349790700000000 O
   0.0012368900000000    0.2878530200000000    0.2612925400000000 O
   0.8414280199999999    0.2672474300000000    0.4078054500000000 O
   0.0699291200000000    0.7184676800000001    0.4167598599999999 O
   0.3772151900000000    0.6543892100000001    0.4275940700000000 O
   0.8457447099999996    0.9116132700000000    0.1815371600000000 O
   0.0120083400000000    0.5564681099999998    0.7244235800000000 O
   0.6962450699999999    0.4283748499999999    0.1665233100000000 O
   0.3971878400000000    0.2077095600000000    0.2496897100000000 O
   0.5315472999999998    0.8134301599999997    0.8047925800000000 O
   0.6370398600000000    0.4315684599999999    0.6928864099999998 O
   0.1628457399999999    0.7172282999999999    0.8630060300000000 O
   0.2456144300000000    0.1145559000000000    0.9744982700000000 O
