Lu8 Ni2
1.0
   0.0000000000000000    5.2221880000000001    5.2221880000000001
   5.2221880000000001    0.0000000000000000    5.2221880000000001
   5.2221880000000001    5.2221880000000001    0.0000000000000000
Lu Ni
8 2
direct
   0.3870569999999999    0.3870570000000000    0.3870570000000000 Lu
   0.3870570000000000    0.3870569999999999    0.8388289999999998 Lu
   0.3870570000000000    0.8388289999999998    0.3870570000000000 Lu
   0.8629430000000000    0.8629430000000000    0.4111710000000000 Lu
   0.8629430000000000    0.8629430000000000    0.8629430000000000 Lu
   0.8388289999999998    0.3870570000000000    0.3870570000000000 Lu
   0.8629430000000000    0.4111710000000000    0.8629430000000000 Lu
   0.4111710000000000    0.8629430000000000    0.8629430000000000 Lu
   0.0000000000000000    0.0000000000000000    0.0000000000000000 Ni
   0.2500000000000000    0.2500000000000000    0.2500000000000000 Ni
