Mg10 Si12
1.0
   4.0000039999999997    0.0000000000000000    0.0000000000000000
   0.0000000000000000    6.9248300000000000    0.0000000000000000
   0.0000000000000000    1.7881790000000000   14.5533750000000008
Mg Si
10 12
direct
   0.2500000000000000    0.3863050000000001    0.7576389999999998 Mg
   0.7499999999999999    0.6136950000000001    0.2423610000000000 Mg
   0.2500000000000000    0.7342360000000001    0.3794399999999999 Mg
   0.2500000000000000    0.4713440000000000    0.0902750000000000 Mg
   0.7499999999999999    0.5286560000000000    0.9097250000000000 Mg
   0.7499999999999999    0.2657640000000000    0.6205600000000000 Mg
   0.2500000000000000    0.2844290000000000    0.3277560000000000 Mg
   0.2500000000000000    0.9530360000000000    0.1709260000000000 Mg
   0.7499999999999999    0.0469640000000000    0.8290740000000000 Mg
   0.7499999999999999    0.7155710000000001    0.6722440000000000 Mg
   0.2500000000000000    0.0244920000000001    0.6921519999999999 Si
   0.2500000000000000    0.7459519999999999    0.8066109999999999 Si
   0.7499999999999999    0.2540480000000001    0.1933890000000000 Si
   0.7499999999999999    0.9755080000000003    0.3078480000000000 Si
   0.2500000000000000    0.5518230000000000    0.5545480000000000 Si
   0.2500000000000000    0.2118090000000000    0.9417420000000000 Si
   0.7499999999999999    0.7881910000000000    0.0582580000000000 Si
   0.7499999999999999    0.0769680000000000    0.4598820000000000 Si
   0.2500000000000000    0.9230320000000002    0.5401180000000000 Si
   0.2500000000000000    0.8438980000000001    0.9573790000000000 Si
   0.7499999999999999    0.1561020000000000    0.0426210000000000 Si
   0.7499999999999999    0.4481770000000001    0.4454520000000000 Si
