Na1 Ru3
1.0
  -1.9366420000000000    1.9366420000000000    3.9300880000000000
   1.9366420000000000   -1.9366420000000000    3.9300880000000000
   1.9366420000000000    1.9366420000000000   -3.9300880000000000
Na Ru
1 3
direct
   0.0000000000000000    0.0000000000000000    0.0000000000000000 Na
   0.7500000000000000    0.2500000000000000    0.5000000000000000 Ru
   0.2500000000000001    0.7500000000000000    0.5000000000000000 Ru
   0.5000000000000000    0.5000000000000000    0.0000000000000000 Ru
