Na6 O3
1.0
   3.0941190000000001   -5.3591709999999999    0.0000000000000000
   3.0941190000000001    5.3591709999999999    0.0000000000000000
   0.0000000000000000    0.0000000000000000    3.6534900000000001
Na O
6 3
direct
   0.4123360000000000   -0.0000000000000000    0.0000000000000000 Na
   0.2611480000000000    0.2611479999999999    0.5000000000000000 Na
   0.0000000000000001    0.7388520000000000    0.5000000000000000 Na
   0.0000000000000001    0.4123359999999999    0.0000000000000000 Na
   0.7388520000000000   -0.0000000000000000    0.5000000000000000 Na
   0.5876640000000000    0.5876639999999999    0.0000000000000000 Na
   0.3333330000000000    0.6666670000000000    0.5000000000000000 O
   0.0000000000000000    0.0000000000000000    0.0000000000000000 O
   0.6666670000000000    0.3333329999999999    0.5000000000000000 O
