Zn50 S50
1.0
  13.3556162700000005    0.3841365200000000    0.8363456500000001
   0.3284833600000000   14.0887524200000005    0.1993364200000000
   0.8127581300000000    0.1817463200000000   12.5903358700000005
Zn S
50 50
direct
   0.4721995199999998    0.5043189700000000    0.8660148300000000 Zn
   0.3854358499999999    0.1406757700000000    0.7768498200000001 Zn
   0.6744672899999999    0.3304439200000000    0.8505387000000001 Zn
   0.4714574399999999    0.0922645400000000    0.5959788600000000 Zn
   0.9484790799999999    0.8899616900000001    0.3010117300000000 Zn
   0.8603049799999999    0.6082959000000000    0.5446019000000000 Zn
   0.9576646499999998    0.1597732900000000    0.8792168100000000 Zn
   0.6567378299999996    0.7094623600000001    0.9495279300000001 Zn
   0.9880598999999999    0.3523978600000000    0.0709210700000000 Zn
   0.1025419000000000    0.1698581100000000    0.7190008100000002 Zn
   0.5204843099999998    0.3265935700000000    0.3259458200000000 Zn
   0.7910983799999999    0.5459346400000000    0.8268837200000000 Zn
   0.4776663899999999    0.0701258000000000    0.9721875000000001 Zn
   0.0438159300000000    0.1097739600000000    0.2186527700000000 Zn
   0.1409362899999999    0.6527674400000001    0.4042992900000000 Zn
   0.5697406899999999    0.3113345600000000    0.1234255100000000 Zn
   0.3669926900000000    0.2557026600000000    0.5967215700000000 Zn
   0.7882134799999997    0.1344486700000000    0.2536868900000000 Zn
   0.5860262799999999    0.0821032200000000    0.1260875900000000 Zn
   0.0808907800000000    0.9017697700000000    0.6201894399999999 Zn
   0.3669973100000000    0.8061460100000001    0.3868416400000000 Zn
   0.6230651299999999    0.8775717800000000    0.2880396000000000 Zn
   0.9427079799999998    0.0590192000000000    0.5283032400000000 Zn
   0.5409520499999998    0.9236287100000001    0.5435502500000001 Zn
   0.2649911800000000    0.3670963700000000    0.2979430000000000 Zn
   0.1463944100000000    0.1161045100000000    0.9166069200000000 Zn
   0.1134987100000000    0.8258444800000000    0.8876502099999999 Zn
   0.6642883799999998    0.4671699200000000    0.6752198200000000 Zn
   0.5572645999999999    0.2601337800000000    0.5812172600000000 Zn
   0.6142091799999998    0.9518256100000001    0.9102268500000000 Zn
   0.2595203599999999    0.6919414400000000    0.1841761800000000 Zn
   0.3060072099999999    0.6413502900000001    0.6237213200000000 Zn
   0.4881945700000000    0.9856429400000002    0.7649277900000000 Zn
   0.8690250899999997    0.5253177300000000    0.1340022800000000 Zn
   0.4464898099999999    0.1943191600000000    0.2025606100000000 Zn
   0.6337065999999999    0.7639843600000001    0.7212375900000001 Zn
   0.6956387899999998    0.4370795400000000    0.3835265700000000 Zn
   0.0394904200000000    0.5762163800000001    0.7195053899999999 Zn
   0.1921112099999999    0.4151602099999999    0.5329450400000000 Zn
   0.6197494699999999    0.5435594000000001    0.1004716400000000 Zn
   0.4064873399999999    0.5445379100000000    0.3674710300000000 Zn
   0.0023473100000000    0.2580493500000000    0.4552962100000000 Zn
   0.2335653199999999    0.4325433800000000    0.7957600800000001 Zn
   0.8128819599999998    0.7967562500000001    0.3692210000000001 Zn
   0.2525423100000000    0.2254305800000000    0.1130643800000000 Zn
   0.6113277999999998    0.6889300800000001    0.4590174400000001 Zn
   0.9823866199999998    0.4912191000000001    0.3209837700000000 Zn
   0.1561250999999999    0.5530883400000000    0.9881899300000001 Zn
   0.3047661600000000    0.8029367600000001    0.9722137600000001 Zn
   0.2975287799999999    0.8884060300000001    0.7224439100000000 Zn
   0.6129087999999998    0.6090152099999999    0.8052718200000001 S
   0.9221410699999999    0.1463296900000000    0.3554519700000000 S
   0.4722762999999998    0.9286842600000000    0.3739762600000000 S
   0.9572247199999999    0.8713780600000001    0.9722979200000000 S
   0.3320439399999999    0.3656148900000000    0.1088372500000000 S
   0.2875399700000000    0.1913885600000000    0.2851586400000001 S
   0.5650880999999999    0.4896211800000000    0.2763222900000001 S
   0.1637156500000000    0.7094315500000000    0.0314711300000000 S
   0.6258131399999999    0.1749550900000000    0.8633844900000001 S
   0.1630504299999999    0.5752700300000001    0.5708476700000000 S
   0.4662776599999999    0.8326484100000000    0.7071532500000001 S
   0.7316930399999999    0.0808093400000000    0.9246311200000001 S
   0.3711363499999999    0.3803883400000000    0.4463853000000000 S
   0.2415252400000000    0.9367991600000000    0.8988701000000001 S
   0.3420045199999999    0.5545895499999999    0.7672197700000001 S
   0.6841600399999999    0.8111881600000002    0.5425958400000001 S
   0.0774766900000000    0.9540356399999999    0.1718758200000000 S
   0.8442354499999998    0.4179602500000000    0.2722624000000000 S
   0.3213033599999999    0.1510878200000000    0.9552510100000002 S
   0.9658329999999999    0.6412453500000002    0.3914369400000001 S
   0.8580166399999999    0.2847430600000000    0.9923809500000000 S
   0.7203494599999999    0.8317166900000001    0.8479520699999999 S
   0.8532300499999997    0.0602413400000000    0.8113193600000000 S
   0.0427553700000000    0.4905520600000001    0.1301396700000000 S
   0.5786195099999999    0.4231052200000000    0.9885883000000000 S
   0.1619522700000000    0.0525901700000000    0.5914428200000000 S
   0.6533245999999999    0.2751254200000000    0.4203749200000000 S
   0.0955023500000000    0.3793167800000001    0.3962523000000001 S
   0.8046678699999997    0.3999404200000000    0.7495893900000001 S
   0.7035836000000000    0.5488949200000000    0.5161312100000000 S
   0.7498438399999998    0.2472911500000000    0.1207718800000000 S
   0.7788142199999999    0.5898916799999999    0.0113293700000000 S
   0.6911302799999999    0.7263446300000000    0.2858675800000001 S
   0.4301307099999999    0.6712514000000003    0.4780505600000001 S
   0.2133527100000000    0.7945567300000002    0.3291292600000000 S
   0.0884003200000000    0.2120746400000000    0.0810150600000000 S
   0.5399055699999998    0.7064482800000002    0.1027276100000000 S
   0.2086496999999999    0.3085623900000000    0.6780802100000000 S
   0.9576956399999997    0.1949944400000000    0.6177835000000000 S
   0.9938663399999996    0.9920021200000000    0.0376385900000000 S
   0.2576421499999999    0.5510452600000000    0.2896144500000000 S
   0.1686591900000000    0.7844286700000001    0.7049180200000001 S
   0.3116088100000000   -0.0000065300000000    0.5812734100000000 S
   0.7136070000000000    0.0027671000000000    0.2024293800000000 S
   0.8876880099999997    0.6498154900000002    0.7104136700000000 S
   0.5389474499999998    0.3607007699999999    0.7243957200000000 S
   0.0705424800000000    0.4816811200000000    0.8614057899999999 S
   0.9447235499999999    0.9036818600000002    0.5377483500000000 S
   0.3107118600000000    0.4534543800000000    0.9765626500000000 S
   0.4013431799999999    0.6882605000000002    0.0454616800000000 S
