Tb11 O20
1.0
   6.5630350000000002    0.0000000000000000    0.0000000000000000
  -1.0374319999999999    6.6102559999999997    0.0000000000000000
  -0.5274880000000000   -0.8165720000000000   10.2508099999999995
Tb O
11 20
direct
   0.1282190000000000    0.5488140000000001    0.1728970000000000 Tb
   0.8184780000000000    0.8888250000000001    0.6313330000000000 Tb
   0.7290049999999999    0.3636670000000001    0.4787380000000000 Tb
   0.3700809999999999    0.1450870000000000    0.7236880000000000 Tb
   0.8717809999999999    0.4511859999999999    0.8271030000000000 Tb
   0.1815220000000000    0.1111750000000000    0.3686670000000000 Tb
   0.4692590000000000    0.7322990000000000    0.9242250000000000 Tb
   0.2709950000000000    0.6363330000000001    0.5212620000000000 Tb
   0.6299190000000001    0.8549130000000001    0.2763120000000000 Tb
   0.0000000000000000    0.0000000000000000    0.0000000000000000 Tb
   0.5307410000000000    0.2677010000000001    0.0757750000000000 Tb
   0.5294700000000000    0.4091010000000000    0.8715809999999999 O
   0.8778499999999999    0.3359610000000001    0.0379630000000000 O
   0.5400800000000000    0.1831320000000000    0.2957970000000000 O
   0.4599200000000000    0.8168680000000000    0.7042030000000000 O
   0.0351010000000000    0.4271940000000001    0.3699060000000000 O
   0.6688119999999999    0.9657340000000000    0.0697250000000000 O
   0.8476480000000000    0.0573420000000000    0.4315870000000000 O
   0.4705299999999999    0.5908990000000000    0.1284190000000000 O
   0.7935969999999999    0.7805480000000000    0.8388109999999999 O
   0.1523520000000000    0.9426580000000001    0.5684129999999999 O
   0.2872890000000000    0.7992410000000000    0.3311040000000000 O
   0.9590750000000000    0.8330140000000000    0.2005930000000000 O
   0.6285380000000000    0.6760260000000000    0.4619240000000000 O
   0.2064030000000000    0.2194520000000000    0.1611890000000000 O
   0.3714620000000000    0.3239740000000000    0.5380760000000000 O
   0.1221500000000000    0.6640390000000000    0.9620370000000000 O
   0.0409250000000000    0.1669860000000000    0.7994070000000000 O
   0.9648990000000000    0.5728060000000000    0.6300940000000000 O
   0.7127110000000001    0.2007590000000000    0.6688960000000000 O
   0.3311879999999999    0.0342660000000000    0.9302750000000000 O
