Cd1 Sn3
1.0
  -2.2661129999999998    2.2661129999999998    5.2693740000000000
   2.2661129999999998   -2.2661129999999998    5.2693740000000000
   2.2661129999999998    2.2661129999999998   -5.2693740000000000
Cd Sn
1 3
direct
   0.0000000000000000    0.0000000000000000    0.0000000000000000 Cd
   0.7500000000000000    0.2500000000000000    0.5000000000000000 Sn
   0.2500000000000000    0.7500000000000000    0.5000000000000000 Sn
   0.5000000000000000    0.5000000000000000    0.0000000000000000 Sn
