Ho10 Rh6
1.0
   4.1079850000000002   -7.1152389999999999    0.0000000000000000
   4.1079850000000002    7.1152389999999999    0.0000000000000000
   0.0000000000000000    0.0000000000000000    6.2917389999999997
Ho Rh
10 6
direct
   0.0000000000000000    0.7514209999999999    0.7500000000000000 Ho
   0.0000000000000000    0.2485790000000000    0.2500000000000000 Ho
   0.7514210000000000    0.7514209999999999    0.2500000000000000 Ho
   0.7514210000000000   -0.0000000000000001    0.7500000000000000 Ho
   0.2485790000000000    0.2485790000000000    0.7500000000000000 Ho
   0.2485790000000000    0.0000000000000000    0.2500000000000000 Ho
   0.3333330000000000    0.6666670000000000    0.5000000000000000 Ho
   0.6666670000000000    0.3333329999999999    0.0000000000000000 Ho
   0.6666670000000000    0.3333329999999999    0.5000000000000000 Ho
   0.3333330000000000    0.6666670000000000    0.0000000000000000 Ho
   0.3985300000000000   -0.0000000000000000    0.7500000000000000 Rh
   0.3985300000000000    0.3985299999999999    0.2500000000000000 Rh
   0.0000000000000000    0.6014699999999998    0.2500000000000000 Rh
   0.0000000000000000    0.3985299999999999    0.7500000000000000 Rh
   0.6014699999999999    0.6014699999999998    0.7500000000000000 Rh
   0.6014699999999999   -0.0000000000000000    0.2500000000000000 Rh
