Dy1 Ru3
1.0
   4.0472960000000002    0.0000000000000000    0.0000000000000000
   0.0000000000000000    4.0472960000000002    0.0000000000000000
   0.0000000000000000    0.0000000000000000    4.0472960000000002
Dy Ru
1 3
direct
   0.0000000000000000    0.0000000000000000    0.0000000000000000 Dy
   0.0000000000000000    0.5000000000000000    0.5000000000000000 Ru
   0.5000000000000000    0.0000000000000000    0.5000000000000000 Ru
   0.5000000000000000    0.5000000000000000    0.0000000000000000 Ru
