K8 Ge46
1.0
  11.1033299999999997    0.0000000000000000    0.0000000000000000
   0.0000000000000000   11.1033299999999997    0.0000000000000000
   0.0000000000000000    0.0000000000000000   11.1033299999999997
K Ge
8 46
direct
   0.0000000000000000    0.0000000000000000    0.0000000000000000 K
   0.5000000000000000    0.5000000000000000    0.5000000000000000 K
   0.2500000000000000    0.5000000000000000    0.0000000000000000 K
   0.7500000000000000    0.5000000000000000    0.0000000000000000 K
   0.5000000000000000    0.0000000000000000    0.2500000000000000 K
   0.5000000000000000    0.0000000000000000    0.7500000000000000 K
   0.0000000000000000    0.7500000000000000    0.5000000000000000 K
   0.0000000000000000    0.2500000000000000    0.5000000000000000 K
   0.2500000000000000    0.0000000000000000    0.5000000000000000 Ge
   0.7500000000000000    0.0000000000000000    0.5000000000000000 Ge
   0.0000000000000000    0.5000000000000000    0.2500000000000000 Ge
   0.0000000000000000    0.5000000000000000    0.7500000000000000 Ge
   0.5000000000000000    0.7500000000000000    0.0000000000000000 Ge
   0.5000000000000000    0.2500000000000000    0.0000000000000000 Ge
   0.1844550000000000    0.1844550000000000    0.1844550000000000 Ge
   0.6844550000000000    0.3155450000000000    0.6844550000000000 Ge
   0.6844550000000000    0.6844550000000000    0.3155450000000000 Ge
   0.3155450000000000    0.6844550000000000    0.6844550000000000 Ge
   0.8155450000000001    0.8155450000000001    0.1844550000000000 Ge
   0.1844550000000000    0.8155450000000001    0.8155450000000001 Ge
   0.8155450000000001    0.1844550000000000    0.8155450000000001 Ge
   0.3155450000000000    0.3155450000000000    0.3155450000000000 Ge
   0.8155450000000001    0.8155450000000001    0.8155450000000001 Ge
   0.3155450000000000    0.6844550000000000    0.3155450000000000 Ge
   0.3155450000000000    0.3155450000000000    0.6844550000000000 Ge
   0.6844550000000000    0.3155450000000000    0.3155450000000000 Ge
   0.1844550000000000    0.1844550000000000    0.8155450000000001 Ge
   0.8155450000000001    0.1844550000000000    0.1844550000000000 Ge
   0.1844550000000000    0.8155450000000001    0.1844550000000000 Ge
   0.6844550000000000    0.6844550000000000    0.6844550000000000 Ge
   0.0000000000000000    0.3062870000000000    0.1189580000000000 Ge
   0.5000000000000000    0.3810420000000000    0.8062870000000001 Ge
   0.5000000000000000    0.6189580000000001    0.1937130000000000 Ge
   0.6189580000000001    0.8062870000000001    0.5000000000000000 Ge
   0.3810420000000000    0.8062870000000001    0.5000000000000000 Ge
   0.1937130000000000    0.5000000000000000    0.6189580000000001 Ge
   0.8062870000000001    0.5000000000000000    0.6189580000000001 Ge
   0.1189580000000000    0.0000000000000000    0.3062870000000000 Ge
   0.3062870000000000    0.1189580000000000    0.0000000000000000 Ge
   0.6937130000000001    0.8810420000000000    0.0000000000000000 Ge
   0.1189580000000000    0.0000000000000000    0.6937130000000001 Ge
   0.6937130000000001    0.1189580000000000    0.0000000000000000 Ge
   0.8810420000000000    0.0000000000000000    0.3062870000000000 Ge
   0.8810420000000000    0.0000000000000000    0.6937130000000001 Ge
   0.3062870000000000    0.8810420000000000    0.0000000000000000 Ge
   0.0000000000000000    0.6937130000000001    0.8810420000000000 Ge
   0.0000000000000000    0.3062870000000000    0.8810420000000000 Ge
   0.0000000000000000    0.6937130000000001    0.1189580000000000 Ge
   0.8062870000000001    0.5000000000000000    0.3810420000000000 Ge
   0.1937130000000000    0.5000000000000000    0.3810420000000000 Ge
   0.6189580000000001    0.1937130000000000    0.5000000000000000 Ge
   0.3810420000000000    0.1937130000000000    0.5000000000000000 Ge
   0.5000000000000000    0.6189580000000001    0.8062870000000001 Ge
   0.5000000000000000    0.3810420000000000    0.1937130000000000 Ge
