Ga6 Si2
1.0
   3.0038640000000001   -5.2028449999999999    0.0000000000000000
   3.0038640000000001    5.2028449999999999    0.0000000000000000
   0.0000000000000000    0.0000000000000000    4.6715320000000000
Ga Si
6 2
direct
   0.1684749999999999    0.3369500000000000    0.2500000000000000 Ga
   0.6630499999999999    0.8315250000000000    0.2500000000000000 Ga
   0.1684749999999999    0.8315250000000000    0.2500000000000000 Ga
   0.8315249999999998    0.6630500000000000    0.7500000000000001 Ga
   0.3369500000000000    0.1684750000000000    0.7500000000000001 Ga
   0.8315249999999998    0.1684750000000000    0.7500000000000001 Ga
   0.3333329999999999    0.6666670000000000    0.7500000000000001 Si
   0.6666669999999999    0.3333330000000000    0.2500000000000000 Si
