V6 O12
1.0
   1.2312989999999999   -2.2794010000000000    4.2855790000000002
   8.0899730000000005   -2.2066650000000001   -3.7017859999999998
   1.2291600000000000    4.8646450000000003    0.0567100000000000
V O
6 12
direct
   0.4960390000000001    0.5096870000000001    0.4899220000000001 V
   0.9333500000000002    0.7525550000000001    0.5817980000000000 V
   0.5652020000000000    0.7565990000000001    0.9336069999999999 V
   0.9831060000000001    0.0095640000000000    0.0017500000000001 V
   0.4274870000000000    0.2575310000000000    0.0713860000000000 V
   0.0774030000000000    0.2512140000000000    0.4412490000000000 V
   0.3018410000000000    0.1204840000000000    0.3054010000000000 O
   0.7994390000000001    0.6209720000000001    0.8072269999999999 O
   0.1960680000000000    0.3866430000000000    0.1988180000000000 O
   0.6905950000000000    0.8868850000000000    0.7023249999999999 O
   0.1031170000000000    0.1395590000000000    0.7688239999999998 O
   0.5904540000000000    0.6314490000000000    0.2611190000000000 O
   0.7551250000000000    0.1310440000000000    0.0982620000000000 O
   0.2617329999999999    0.6389460000000000    0.6106929999999998 O
   0.4013850000000000    0.3543650000000000    0.7379749999999999 O
   0.8914010000000000    0.8488300000000000    0.2436749999999999 O
   0.7379710000000000    0.3491850000000000    0.3971490000000000 O
   0.2307910000000000    0.8544889999999999    0.9063139999999998 O
