Ta3 Co9
1.0
   2.3495499999999998   -4.0695399999999999    0.0000000000000000
   2.3495499999999998    4.0695399999999999    0.0000000000000000
   0.0000000000000000    0.0000000000000000    7.6657679999999999
Ta Co
3 9
direct
   0.0000000000000000    0.0000000000000000    0.4531290000000001 Ta
   0.0000000000000000    0.0000000000000000    0.0699980000000000 Ta
   0.3333330000000001    0.6666670000000000    0.9060600000000001 Ta
   0.6666670000000001    0.3333329999999999    0.5009100000000000 Co
   0.6666670000000001    0.3333329999999999    0.0049840000000000 Co
   0.8351080000000001    0.6702160000000000    0.7502240000000000 Co
   0.8351080000000001    0.1648920000000000    0.7502240000000000 Co
   0.3297840000000001    0.1648920000000000    0.7502240000000000 Co
   0.4957090000000002    0.9914170000000000    0.2517200000000000 Co
   0.4957090000000001    0.5042909999999999    0.2517200000000000 Co
   0.0085830000000001    0.5042910000000000    0.2517200000000000 Co
   0.3333330000000001    0.6666670000000000    0.5591820000000001 Co
