Tb3 Zn1
1.0
   4.7541539999999998    0.0000000000000000    0.0000000000000000
   0.0000000000000000    4.7541539999999998    0.0000000000000000
   0.0000000000000000    0.0000000000000000    4.7541539999999998
Tb Zn
3 1
direct
   0.0000000000000000    0.5000000000000000    0.5000000000000000 Tb
   0.5000000000000000    0.0000000000000000    0.5000000000000000 Tb
   0.5000000000000000    0.5000000000000000    0.0000000000000000 Tb
   0.0000000000000000    0.0000000000000000    0.0000000000000000 Zn
