Si4 Ir8
1.0
   4.0175840000000003    0.0000000000000000    0.0000000000000000
   0.0000000000000000    5.3271889999999997    0.0000000000000000
   0.0000000000000000    0.0000000000000000    7.7370299999999999
Si Ir
4 8
direct
   0.2500000000000000    0.2924010000000000    0.8989200000000001 Si
   0.2500000000000000    0.7924010000000001    0.6010799999999998 Si
   0.7500000000000001    0.7075990000000000    0.1010800000000000 Si
   0.7500000000000001    0.2075990000000000    0.3989200000000000 Si
   0.2500000000000000    0.8406350000000000    0.9242850000000000 Ir
   0.2500000000000000    0.3406350000000000    0.5757150000000000 Ir
   0.7500000000000001    0.1593650000000000    0.0757150000000000 Ir
   0.7500000000000001    0.6593650000000000    0.4242850000000000 Ir
   0.2500000000000000    0.9781080000000001    0.3006220000000000 Ir
   0.2500000000000000    0.4781080000000000    0.1993780000000000 Ir
   0.7500000000000001    0.0218920000000000    0.6993780000000001 Ir
   0.7500000000000001    0.5218920000000000    0.8006219999999999 Ir
