Zn50 S50
1.0
  14.1232725800000001    0.2262109100000000    0.2860143200000000
   0.2403120600000000   13.4470424800000004    0.2320479700000000
   0.2571407600000000    0.2368895900000000   12.7544486900000003
Zn S
50 50
direct
   0.5740239600000001    0.0108070800000000    0.5912935699999999 Zn
   0.0919464400000000    0.5223638000000000    0.7825092000000000 Zn
   0.8088309500000002    0.2477575900000000    0.8583860400000000 Zn
   0.6266451700000001    0.4236268900000000    0.7737106899999999 Zn
   0.0302398600000000    0.1189840600000000    0.4752626399999999 Zn
   0.4440719400000001    0.0859698600000000    0.4161982599999999 Zn
   0.7288880800000003    0.5962162500000001    0.4593530100000000 Zn
   0.4941784600000000    0.7873926000000002    0.2305488900000000 Zn
   0.4578179200000000    0.2973938700000001    0.5685978300000000 Zn
   0.7975898900000001    0.0696883600000000    0.1184693700000000 Zn
   0.9211314100000002    0.3890288700000001    0.4933754400000000 Zn
   0.6057583600000002    0.9315377100000002    0.0539426000000000 Zn
   0.8892753500000001    0.5186292200000000    0.2152660500000000 Zn
   0.9602190400000000    0.0794334100000000    0.7076033599999999 Zn
   0.5018837000000000    0.6896339400000000    0.5197707499999999 Zn
   0.5998715999999999    0.6099065900000002    0.9518549500000000 Zn
   0.1832231700000000    0.9421149100000001    0.6117059800000000 Zn
   0.1074268000000000    0.8461683500000002    0.1617993200000000 Zn
   0.0949451300000000    0.1110948800000000    0.9894697799999999 Zn
   0.2883201100000000    0.6176761200000002    0.2614422299999999 Zn
   0.1037638800000000    0.3710183700000000    0.9800757099999998 Zn
   0.4990147600000001    0.1600964100000000    0.8166962999999999 Zn
   0.6613418600000001    0.3632987800000001    0.4025022300000000 Zn
   0.7126410800000000    0.9971443700000002    0.7875753299999999 Zn
   0.4461205100000000    0.8859318100000000    0.8855374499999998 Zn
   0.1391596400000000    0.6966468800000001    0.0021269800000000 Zn
   0.5910393900000001    0.7824830600000000    0.6367777999999998 Zn
   0.5110171000000000    0.5300591900000001    0.2912363800000000 Zn
   0.8203570000000001    0.1399561100000001    0.4356742499999999 Zn
   0.3760326500000001    0.3786984900000001    0.9376373600000000 Zn
   0.0668594100000000    0.0065876800000000    0.2077439700000000 Zn
   0.9726098400000001    0.8713906900000001    0.5907426600000000 Zn
   0.1644875700000000    0.3149552700000001    0.3684967900000000 Zn
   0.2674252000000000    0.3049041000000000    0.2193617900000000 Zn
   0.8425827100000000    0.3698635200000001    0.9862029599999999 Zn
   0.3398813500000001    0.8571977000000000    0.0340785000000000 Zn
   0.6398440300000002    0.9370012200000000    0.3149660500000000 Zn
   0.8000910700000002    0.4580329900000000    0.7956086099999999 Zn
   0.3463562100000000    0.9030953900000003    0.6200973199999998 Zn
   0.0168440800000000    0.2544695100000000    0.1819336300000000 Zn
   0.7053582700000000    0.5733020600000001    0.6490544800000000 Zn
   0.7053213900000002    0.7494971500000001    0.1504349100000000 Zn
   0.2262978500000000    0.2257095000000001    0.7626497700000000 Zn
   0.0162935000000000    0.6523038600000001    0.3421965100000000 Zn
   0.0408689000000000    0.3468322400000001    0.6172053400000000 Zn
   0.4590724100000000    0.6230628100000001    0.7720239299999999 Zn
   0.8368349100000001    0.8643298800000001    0.2537346100000000 Zn
   0.9215594000000001    0.6595684000000001    0.9440317699999999 Zn
   0.1745709700000000    0.5642278900000000    0.5352378199999999 Zn
   0.0181628400000000    0.7509959100000001    0.7306967599999998 Zn
   0.5127445400000001    0.9562037500000001    0.2081324800000000 S
   0.3558739600000000    0.2212830500000000    0.8793200399999999 S
   0.4759912000000001    0.2028787700000000    0.2988458099999999 S
   0.7443996500000000    0.2372651500000000    0.0911909400000000 S
   0.1029465800000000    0.3484586000000001    0.8002238699999998 S
   0.0859935400000000    0.9618683700000001    0.7660717200000000 S
   0.8136644700000002    0.6206921399999998    0.0831441500000000 S
   0.7292075100000001    0.5135688400000001    0.0202114200000000 S
   0.8413620600000001    0.0819197200000000    0.8374579599999999 S
   0.1603895600000000    0.6469211300000000    0.6809984699999999 S
   0.0227627700000000    0.7844966500000001    0.9234972800000000 S
   0.6315317600000001    0.6738875500000001    0.7777537399999999 S
   0.1638152400000000    0.2394193800000000    0.0802273200000000 S
   0.5641118900000001    0.7422724800000001    0.0644524900000000 S
   0.8938507900000001    0.5447406100000000    0.3889112399999999 S
   0.7790519600000001    0.0305203300000000    0.3054069300000000 S
   0.5665991000000002    0.0002181300000000    0.8896228900000001 S
   0.1607646300000000    0.5357646600000001    0.9538019799999999 S
   0.4250162500000000    0.5471407200000000    0.6146645999999999 S
   0.6310971600000003    0.2565923400000000    0.8619126699999999 S
   0.6679759700000000    0.5129830100000001    0.3133912100000000 S
   0.5384737500000000    0.4420969700000000    0.6063752899999999 S
   0.0781357300000000    0.1766132900000000    0.6313674200000000 S
   0.9611083500000001    0.4065762300000000    0.0991175500000000 S
   0.3957549300000001    0.3683617700000001    0.1227076500000000 S
   0.1061127900000000    0.8715255000000001    0.4635750000000000 S
   0.4255267300000000    0.6796417900000001    0.3482224300000000 S
   0.7766206400000001    0.2909706000000000    0.4964710500000000 S
   0.6148709500000002    0.2686404200000000    0.0267020600000000 S
   0.9247939600000000    0.5728107300000002    0.7957305099999998 S
   0.3045313000000001    0.5334870100000001    0.9069836199999999 S
   0.1767084800000000    0.0548413200000000    0.8466287200000000 S
   0.4989444500000000    0.3282246200000001    0.3864976100000000 S
   0.9631104400000000    0.1097229200000000    0.1074825300000000 S
   0.8991773100000002    0.0266651500000000    0.5471681900000001 S
   0.2071279600000000    0.3781531600000000    0.5308990700000000 S
   0.4704689800000000    0.9374586700000000    0.4856381100000000 S
   0.7071813800000001    0.7745324300000002    0.3302611800000000 S
   0.5069154800000000    0.4886287800000000    0.8880029200000000 S
   0.1278890400000000    0.0092282300000000    0.3826699199999999 S
   0.4025713700000000    0.5161053799999999    0.1643261400000000 S
   0.2395303400000001    0.7412907200000002    0.1290663700000000 S
   0.1564189200000000    0.5646444200000000    0.3595450099999999 S
   0.3992930300000000    0.7908706200000001    0.7550802299999999 S
   0.6971184300000000    0.9124177500000002    0.6371871599999999 S
   0.9669280000000001    0.7596871800000001    0.2145386300000000 S
   0.2981901300000001    0.2642991700000001    0.5895997500000000 S
   0.0063583000000000    0.2615497600000001    0.3616933000000000 S
   0.5506314100000002    0.1687153300000000    0.6399884599999999 S
   0.7707946900000002    0.9073620800000002    0.0665410100000000 S
