Si2 Ge2
1.0
   1.9703090000000001   -3.4126759999999998    0.0000000000000000
   1.9703090000000001    3.4126759999999998    0.0000000000000000
   0.0000000000000000    0.0000000000000000    6.5087310000000000
Si Ge
2 2
direct
   0.6666669999999999    0.3333330000000000    0.8745600000000001 Si
   0.3333329999999999    0.6666670000000000    0.3745600000000000 Si
   0.6666669999999999    0.3333330000000000    0.5004390000000000 Ge
   0.3333329999999999    0.6666670000000000    0.0004390000000000 Ge
