Sb12 N20
1.0
   4.0470017599999997    0.0000000000000000    0.0000000000000000
   0.0000000000000000   10.6498890300000006    0.0000000000000000
   0.0000000000000000    0.0000000000000000   10.4602574900000000
Sb N
12 20
direct
   0.0000000000000000    0.8168664300000000    0.2500000000000000 Sb
   0.0000000000000000    0.1831335700000000    0.7500000000000000 Sb
   0.5000000000000000    0.3168664300000000    0.2500000000000000 Sb
   0.5000000000000000    0.6831335700000000    0.7500000000000000 Sb
   0.0000000000000000    0.1361234600000000    0.4361214800000001 Sb
   0.0000000000000000    0.8638765400000001    0.5638785200000000 Sb
   0.0000000000000000    0.1361234600000000    0.0638785200000000 Sb
   0.0000000000000000    0.8638765400000001    0.9361214799999998 Sb
   0.5000000000000000    0.6361234600000000    0.4361214800000001 Sb
   0.5000000000000000    0.3638765400000000    0.5638785200000000 Sb
   0.5000000000000000    0.6361234600000000    0.0638785200000000 Sb
   0.5000000000000000    0.3638765400000000    0.9361214799999998 Sb
   0.0000000000000000    0.2402962300000000    0.2500000000000000 N
   0.0000000000000000    0.7597037700000001    0.7500000000000000 N
   0.5000000000000000    0.7402962300000000    0.2500000000000000 N
   0.5000000000000000    0.2597037700000000    0.7500000000000000 N
   0.0000000000000000    0.9503959600000002    0.3873228700000000 N
   0.0000000000000000    0.0496040400000000    0.6126771300000000 N
   0.0000000000000000    0.9503959600000002    0.1126771300000000 N
   0.0000000000000000    0.0496040400000000    0.8873228699999999 N
   0.5000000000000000    0.4503959600000000    0.3873228700000000 N
   0.5000000000000000    0.5496040400000000    0.6126771300000000 N
   0.5000000000000000    0.4503959600000000    0.1126771300000000 N
   0.5000000000000000    0.5496040400000000    0.8873228699999999 N
   0.0000000000000000    0.6976216200000001    0.4256417500000000 N
   0.0000000000000000    0.3023783800000000    0.5743582500000000 N
   0.0000000000000000    0.6976216200000001    0.0743582500000000 N
   0.0000000000000000    0.3023783800000000    0.9256417500000000 N
   0.5000000000000000    0.1976216200000000    0.4256417500000000 N
   0.5000000000000000    0.8023783799999999    0.5743582500000000 N
   0.5000000000000000    0.1976216200000000    0.0743582500000000 N
   0.5000000000000000    0.8023783799999999    0.9256417500000000 N
