Rb4 I12
1.0
   6.9946409999999997    0.0000000000000000    0.0000000000000000
   0.0000000000000000   10.1156199999999998    0.0000000000000000
   0.0000000000000000    0.0000000000000000   11.0198090000000004
Rb I
4 12
direct
   0.2500000000000000    0.4731500000000000    0.8279960000000000 Rb
   0.7499999999999999    0.5268500000000000    0.1720040000000000 Rb
   0.7499999999999999    0.9731499999999998    0.6720040000000000 Rb
   0.2500000000000000    0.0268500000000000    0.3279960000000000 Rb
   0.2500000000000000    0.5493760000000000    0.3708970000000000 I
   0.7499999999999999    0.4506240000000000    0.6291030000000000 I
   0.7499999999999999    0.0493760000000000    0.1291030000000000 I
   0.2500000000000000    0.9506239999999999    0.8708970000000000 I
   0.2500000000000000    0.7339990000000000    0.5718970000000000 I
   0.7499999999999999    0.2660009999999999    0.4281030000000000 I
   0.7499999999999999    0.2339990000000000    0.9281030000000000 I
   0.2500000000000000    0.7660009999999999    0.0718970000000000 I
   0.2500000000000000    0.1441340000000000    0.6618250000000000 I
   0.7499999999999999    0.8558660000000000    0.3381750000000000 I
   0.7499999999999999    0.6441340000000000    0.8381750000000001 I
   0.2500000000000000    0.3558660000000000    0.1618250000000000 I
