Ho2 Al4
1.0
   0.0000000000000000    3.9217149999999998    3.9217149999999998
   3.9217149999999998    0.0000000000000000    3.9217149999999998
   3.9217149999999998    3.9217149999999998    0.0000000000000000
Ho Al
2 4
direct
   0.2500000000000000    0.2500000000000000    0.2500000000000001 Ho
   0.0000000000000000    0.0000000000000000    0.0000000000000000 Ho
   0.6250000000000000    0.1250000000000001    0.6250000000000002 Al
   0.6250000000000000    0.6250000000000000    0.1250000000000000 Al
   0.1250000000000001    0.6250000000000000    0.6250000000000002 Al
   0.6250000000000001    0.6250000000000000    0.6250000000000001 Al
