Er1 Zn12
1.0
  -4.4458970000000004    4.4458970000000004    2.5924930000000002
   4.4458970000000004   -4.4458970000000004    2.5924930000000002
   4.4458970000000004    4.4458970000000004   -2.5924930000000002
Er Zn
1 12
direct
   0.0000000000000000    0.0000000000000000    0.0000000000000000 Er
   0.7154739999999999    0.5000000000000000    0.2154740000000000 Zn
  -0.0000000000000000    0.5000000000000000    0.0000000000000000 Zn
   0.5000000000000000    0.5000000000000000    0.5000000000000000 Zn
   0.0000000000000000    0.0000000000000000    0.5000000000000000 Zn
   0.5000000000000000   -0.0000000000000000   -0.0000000000000000 Zn
   0.3538710000000000    0.0000000000000000    0.3538710000000000 Zn
  -0.0000000000000000    0.6461290000000000    0.6461290000000000 Zn
  -0.0000000000000000    0.3538710000000000    0.3538710000000000 Zn
   0.6461290000000000    0.0000000000000000    0.6461290000000000 Zn
   0.2845260000000000    0.5000000000000000    0.7845259999999999 Zn
   0.5000000000000000    0.7154739999999999    0.2154740000000000 Zn
   0.5000000000000000    0.2845260000000000    0.7845259999999999 Zn
