Ta4 O10
1.0
   2.4649820000000000    6.4750980000000000    0.0000000000000000
  -2.4649820000000000    6.4750980000000000    0.0000000000000000
   0.0000000000000000    1.2752850000000000    5.4514379999999996
Ta O
4 10
direct
   0.3873590000000002    0.8946810000000001    0.2307770000000000 Ta
   0.1053190000000001    0.6126410000000001    0.2692230000000000 Ta
   0.6126409999999999    0.1053190000000000    0.7692229999999999 Ta
   0.8946810000000002    0.3873590000000002    0.7307769999999999 Ta
   0.7267950000000001    0.8637720000000001    0.1275670000000000 O
   0.1362280000000000    0.2732050000000000    0.3724330000000000 O
   0.2732049999999999    0.1362280000000000    0.8724330000000000 O
   0.8637720000000000    0.7267950000000001    0.6275670000000000 O
   0.8912280000000001    0.1087720000000001    0.7500000000000000 O
   0.1087720000000001    0.8912280000000001    0.2500000000000000 O
   0.3378930000000000    0.4384680000000000    0.9833200000000000 O
   0.5615320000000000    0.6621070000000001    0.5166800000000000 O
   0.6621070000000000    0.5615320000000000    0.0166800000000000 O
   0.4384680000000001    0.3378930000000001    0.4833200000000000 O
