W4 O8
1.0
   4.8370139999999999    0.0000000000000000    0.0000000000000000
   0.0000000000000000    4.8516820000000003   -3.1762290000000002
   0.0000000000000000   -0.0944910000000000    6.4244199999999996
W O
4 8
direct
   0.5000150000000000    0.4987370000000000    0.7488020000000001 W
   0.0000150000000000    0.0012630000000000    0.7511980000000001 W
   0.4999970000000000    0.5012580000000001    0.2511950000000001 W
   0.9999970000000000    0.9987420000000001    0.2488050000000000 W
   0.3015890000000000    0.2980320000000001    0.9015070000000002 O
   0.8015890000000000    0.2019680000000000    0.5984930000000002 O
   0.6985450000000000    0.7020990000000000    0.0985120000000000 O
   0.1985450000000000    0.7979010000000001    0.4014880000000001 O
   0.3029380000000000    0.2938710000000000    0.3980560000000001 O
   0.1969160000000000    0.7940080000000002    0.8980800000000002 O
   0.8029380000000000    0.2061290000000000    0.1019440000000000 O
   0.6969160000000000    0.7059920000000001    0.6019200000000001 O
