Si6 N8
1.0
   0.0000000000000000    3.8937179999999998    3.8937179999999998
   3.8937179999999998    0.0000000000000000    3.8937179999999998
   3.8937179999999998    3.8937179999999998    0.0000000000000000
Si N
6 8
direct
   0.6250000000000001    0.6250000000000000    0.1250000000000000 Si
   0.6250000000000001    0.1250000000000000    0.6250000000000000 Si
   0.1250000000000001    0.6250000000000000    0.6250000000000000 Si
   0.6250000000000001    0.6250000000000000    0.6250000000000000 Si
   0.2500000000000001    0.2500000000000000    0.2500000000000000 Si
   0.0000000000000000    0.0000000000000000    0.0000000000000000 Si
   0.8675630000000000    0.8675630000000000    0.8675630000000000 N
   0.8526880000000000    0.3824370000000000    0.3824370000000000 N
   0.3824370000000000    0.3824370000000000    0.8526880000000000 N
   0.3824370000000000    0.8526880000000000    0.3824370000000000 N
   0.8675630000000000    0.8675630000000000    0.3973120000000002 N
   0.8675630000000000    0.3973120000000002    0.8675630000000000 N
   0.3824370000000001    0.3824370000000000    0.3824370000000000 N
   0.3973120000000002    0.8675630000000000    0.8675630000000000 N
