Re6 Pt2
1.0
   2.7972800000000002   -4.8450319999999998    0.0000000000000000
   2.7972800000000002    4.8450319999999998    0.0000000000000000
   0.0000000000000000    0.0000000000000000    4.4371200000000002
Re Pt
6 2
direct
   0.1592750000000000    0.3185510000000000    0.2500000000000000 Re
   0.6814490000000000    0.8407249999999999    0.2500000000000000 Re
   0.1592750000000001    0.8407249999999999    0.2500000000000000 Re
   0.8407249999999999    0.6814490000000000    0.7500000000000000 Re
   0.3185510000000000    0.1592750000000000    0.7500000000000000 Re
   0.8407249999999999    0.1592750000000001    0.7500000000000000 Re
   0.3333330000000000    0.6666670000000000    0.7500000000000000 Pt
   0.6666670000000000    0.3333330000000000    0.2500000000000000 Pt
