Cd1 Bi3
1.0
  -2.5368110000000001    2.5368110000000001    4.7253280000000002
   2.5368110000000001   -2.5368110000000001    4.7253280000000002
   2.5368110000000001    2.5368110000000001   -4.7253280000000002
Cd Bi
1 3
direct
   0.0000000000000000    0.0000000000000000    0.0000000000000000 Cd
   0.7500000000000000    0.2500000000000000    0.5000000000000000 Bi
   0.2500000000000000    0.7500000000000000    0.5000000000000000 Bi
   0.5000000000000000    0.5000000000000000    0.0000000000000000 Bi
