Ni4 S8
1.0
   3.5685950000000002    0.0000000000000000    0.0000000000000000
   0.0000000000000000    5.7665090000000001    0.0000000000000000
   0.0000000000000000    0.0000000000000000    9.1061979999999991
Ni S
4 8
direct
   0.2500000000000000    0.3326370000000000    0.8662820000000000 Ni
   0.2500000000000000    0.1673630000000000    0.3662819999999999 Ni
   0.7499999999999999    0.6673630000000000    0.1337180000000000 Ni
   0.7499999999999999    0.8326370000000000    0.6337180000000000 Ni
   0.2500000000000000    0.9402580000000000    0.7896559999999999 S
   0.2500000000000000    0.5597420000000000    0.2896560000000000 S
   0.7499999999999999    0.0597420000000000    0.2103440000000000 S
   0.7499999999999999    0.4402580000000000    0.7103440000000000 S
   0.7499999999999999    0.2077300000000000    0.5334240000000000 S
   0.7499999999999999    0.2922700000000000    0.0334240000000000 S
   0.2500000000000000    0.7922699999999999    0.4665759999999999 S
   0.2500000000000000    0.7077300000000000    0.9665759999999999 S
