Ta48 Cl120
1.0
 -10.3804639999999999   10.3804639999999999   10.3804639999999999
  10.3804639999999999  -10.3804639999999999   10.3804639999999999
  10.3804639999999999   10.3804639999999999  -10.3804639999999999
Ta Cl
48 120
direct
   0.0420460000000000    0.1325140000000000    0.0249220000000000 Ta
   0.1325140000000000    0.6075920000000000    0.0904680000000000 Ta
   0.0171240000000000    0.0420460000000000    0.4095320000000000 Ta
   0.4095320000000000    0.0171240000000000    0.0420460000000000 Ta
   0.0249220000000000    0.4828760000000000    0.8924079999999999 Ta
   0.8924080000000000    0.0249219999999999    0.4828760000000000 Ta
   0.6075920000000000    0.0904680000000000    0.1325150000000000 Ta
   0.0171240000000000    0.4750780000000001    0.6075920000000000 Ta
   0.4095320000000000    0.8924079999999999    0.3674850000000000 Ta
   0.4828760000000000    0.0904680000000000    0.4579540000000001 Ta
   0.4750780000000001    0.6075920000000000    0.0171240000000000 Ta
   0.3674850000000001    0.4095320000000000    0.8924080000000000 Ta
   0.0904680000000000    0.4579540000000001    0.4828760000000000 Ta
   0.0249220000000000    0.0420460000000000    0.1325140000000000 Ta
   0.1325140000000000    0.0249220000000000    0.0420460000000000 Ta
   0.6075920000000000    0.0171240000000000    0.4750780000000001 Ta
   0.3674860000000000    0.4579540000000001    0.4750780000000000 Ta
   0.8924080000000000    0.3674850000000001    0.4095320000000000 Ta
   0.4750779999999999    0.3674859999999999    0.4579540000000001 Ta
   0.4579540000000001    0.4828760000000000    0.0904680000000000 Ta
   0.4579540000000001    0.4750780000000000    0.3674860000000000 Ta
   0.4828760000000000    0.8924080000000000    0.0249220000000000 Ta
   0.0904680000000000    0.1325140000000000    0.6075920000000000 Ta
   0.0420460000000000    0.4095320000000000    0.0171240000000000 Ta
   0.9579540000000000    0.8674850000000001    0.9750780000000001 Ta
   0.8674859999999999    0.3924080000000000    0.9095320000000000 Ta
   0.9828760000000001    0.9579540000000001    0.5904680000000000 Ta
   0.5904680000000000    0.9828759999999999    0.9579540000000000 Ta
   0.9750780000000002    0.5171240000000001    0.1075920000000000 Ta
   0.1075919999999999    0.9750780000000002    0.5171240000000001 Ta
   0.3924080000000000    0.9095320000000000    0.8674860000000000 Ta
   0.9828760000000000    0.5249220000000000    0.3924080000000000 Ta
   0.5904679999999999    0.1075920000000000    0.6325140000000000 Ta
   0.5171240000000000    0.9095320000000000    0.5420460000000000 Ta
   0.5249220000000000    0.3924080000000000    0.9828760000000000 Ta
   0.6325140000000000    0.5904680000000000    0.1075920000000000 Ta
   0.9095320000000000    0.5420460000000000    0.5171240000000000 Ta
   0.9750780000000001    0.9579540000000000    0.8674850000000001 Ta
   0.8674850000000001    0.9750780000000001    0.9579540000000000 Ta
   0.3924080000000000    0.9828759999999999    0.5249220000000000 Ta
   0.6325140000000000    0.5420460000000000    0.5249220000000000 Ta
   0.1075920000000000    0.6325139999999999    0.5904679999999999 Ta
   0.5249220000000001    0.6325140000000001    0.5420460000000000 Ta
   0.5420460000000000    0.5171240000000000    0.9095320000000000 Ta
   0.5420460000000000    0.5249220000000000    0.6325140000000000 Ta
   0.5171240000000000    0.1075920000000000    0.9750780000000001 Ta
   0.9095320000000001    0.8674860000000001    0.3924080000000000 Ta
   0.9579540000000001    0.5904680000000001    0.9828760000000000 Ta
   0.0786690000000000    0.2047200000000000    0.1843870000000000 Cl
   0.2047200000000000    0.5203340000000000    0.1260510000000000 Cl
   0.8942830000000001    0.0786689999999999    0.3739490000000000 Cl
   0.3739490000000001    0.8942830000000002    0.0786690000000001 Cl
   0.1843870000000000    0.6057170000000001    0.9796660000000001 Cl
   0.9796660000000001    0.1843869999999999    0.6057170000000001 Cl
   0.5203340000000001    0.1260510000000000    0.2047200000000001 Cl
   0.8942830000000002    0.3156130000000000    0.5203340000000000 Cl
   0.3739490000000001    0.9796660000000001    0.2952800000000000 Cl
   0.6057169999999999    0.1260510000000001    0.4213310000000000 Cl
   0.3156130000000000    0.5203340000000000    0.8942830000000001 Cl
   0.2952800000000000    0.3739490000000000    0.9796660000000001 Cl
   0.1260510000000000    0.4213310000000001    0.6057170000000001 Cl
   0.1843870000000000    0.0786690000000000    0.2047200000000000 Cl
   0.2047200000000000    0.1843870000000000    0.0786690000000000 Cl
   0.5203340000000000    0.8942830000000001    0.3156130000000000 Cl
   0.2952800000000000    0.4213310000000001    0.3156130000000000 Cl
   0.9796660000000001    0.2952799999999999    0.3739490000000000 Cl
   0.3156130000000000    0.2952800000000000    0.4213310000000000 Cl
   0.4213310000000000    0.6057170000000001    0.1260510000000000 Cl
   0.4213310000000000    0.3156130000000000    0.2952800000000000 Cl
   0.6057169999999999    0.9796660000000001    0.1843870000000000 Cl
   0.1260510000000000    0.2047200000000000    0.5203340000000001 Cl
   0.0786690000000000    0.3739490000000000    0.8942830000000002 Cl
   0.9213310000000000    0.7952799999999999    0.8156130000000000 Cl
   0.7952800000000000    0.4796660000000000    0.8739490000000000 Cl
   0.1057170000000001    0.9213310000000001    0.6260510000000001 Cl
   0.6260510000000000    0.1057170000000000    0.9213310000000001 Cl
   0.8156130000000000    0.3942830000000001    0.0203340000000000 Cl
   0.0203340000000001    0.8156130000000001    0.3942830000000002 Cl
   0.4796660000000001    0.8739490000000001    0.7952799999999999 Cl
   0.1057170000000001    0.6843870000000000    0.4796660000000000 Cl
   0.6260510000000000    0.0203340000000000    0.7047200000000000 Cl
   0.3942830000000000    0.8739490000000000    0.5786690000000000 Cl
   0.6843870000000000    0.4796660000000000    0.1057170000000000 Cl
   0.7047200000000000    0.6260510000000000    0.0203340000000000 Cl
   0.8739490000000001    0.5786690000000000    0.3942830000000001 Cl
   0.8156130000000001    0.9213310000000001    0.7952800000000000 Cl
   0.7952800000000000    0.8156130000000001    0.9213310000000000 Cl
   0.4796660000000000    0.1057170000000000    0.6843870000000000 Cl
   0.7047200000000000    0.5786690000000000    0.6843870000000000 Cl
   0.0203340000000000    0.7047200000000000    0.6260510000000000 Cl
   0.6843870000000000    0.7047200000000000    0.5786690000000000 Cl
   0.5786690000000000    0.3942830000000001    0.8739490000000001 Cl
   0.5786690000000000    0.6843869999999999    0.7047200000000000 Cl
   0.3942830000000001    0.0203340000000000    0.8156130000000001 Cl
   0.8739490000000000    0.7952799999999999    0.4796660000000000 Cl
   0.9213310000000000    0.6260510000000000    0.1057170000000000 Cl
   0.8954530000000002    0.1270270000000000    0.9853620000000001 Cl
   0.1270270000000001    0.6416660000000000    0.2315740000000000 Cl
   0.9100919999999999    0.8954530000000001    0.2684260000000000 Cl
   0.2684259999999999    0.9100919999999999    0.8954530000000002 Cl
   0.9853620000000000    0.5899080000000000    0.8583340000000002 Cl
   0.8583340000000002    0.9853620000000000    0.5899080000000000 Cl
   0.6416660000000000    0.2315740000000000    0.1270270000000000 Cl
   0.9100920000000000    0.5146380000000000    0.6416660000000001 Cl
   0.2684260000000000    0.8583340000000002    0.3729730000000001 Cl
   0.5899080000000000    0.2315740000000000    0.6045469999999999 Cl
   0.5146380000000000    0.6416660000000001    0.9100920000000000 Cl
   0.3729730000000001    0.2684260000000000    0.8583340000000002 Cl
   0.2315740000000000    0.6045469999999998    0.5899080000000000 Cl
   0.9853620000000001    0.8954530000000002    0.1270270000000000 Cl
   0.1270270000000001    0.9853620000000000    0.8954530000000002 Cl
   0.6416660000000001    0.9100920000000000    0.5146380000000000 Cl
   0.3729730000000000    0.6045469999999999    0.5146380000000000 Cl
   0.8583340000000002    0.3729730000000001    0.2684260000000000 Cl
   0.5146380000000002    0.3729730000000000    0.6045469999999999 Cl
   0.6045469999999999    0.5899080000000000    0.2315740000000000 Cl
   0.6045469999999999    0.5146380000000002    0.3729730000000000 Cl
   0.5899080000000000    0.8583340000000002    0.9853620000000000 Cl
   0.2315740000000000    0.1270270000000000    0.6416660000000000 Cl
   0.8954530000000002    0.2684260000000001    0.9100919999999999 Cl
   0.1045469999999999    0.8729729999999999    0.0146380000000000 Cl
   0.8729730000000000    0.3583339999999999    0.7684260000000001 Cl
   0.0899080000000000    0.1045470000000000    0.7315739999999999 Cl
   0.7315739999999999    0.0899080000000001    0.1045470000000000 Cl
   0.0146380000000000    0.4100920000000001    0.1416660000000000 Cl
   0.1416660000000000    0.0146380000000000    0.4100920000000001 Cl
   0.3583339999999999    0.7684260000000001    0.8729730000000000 Cl
   0.0899080000000000    0.4853620000000000    0.3583340000000000 Cl
   0.7315739999999999    0.1416660000000000    0.6270270000000000 Cl
   0.4100920000000001    0.7684260000000001    0.3954530000000001 Cl
   0.4853620000000000    0.3583340000000000    0.0899080000000000 Cl
   0.6270270000000000    0.7315739999999999    0.1416660000000000 Cl
   0.7684260000000002    0.3954530000000001    0.4100920000000001 Cl
   0.0146380000000000    0.1045470000000000    0.8729730000000000 Cl
   0.8729730000000000    0.0146380000000000    0.1045470000000000 Cl
   0.3583340000000000    0.0899080000000000    0.4853620000000000 Cl
   0.6270270000000001    0.3954530000000001    0.4853620000000000 Cl
   0.1416660000000000    0.6270270000000000    0.7315739999999998 Cl
   0.4853620000000000    0.6270270000000000    0.3954530000000001 Cl
   0.3954530000000001    0.4100920000000001    0.7684260000000001 Cl
   0.3954530000000001    0.4853620000000000    0.6270270000000000 Cl
   0.4100920000000000    0.1416660000000000    0.0146380000000000 Cl
   0.7684260000000001    0.8729729999999999    0.3583340000000000 Cl
   0.1045469999999999    0.7315739999999998    0.0899079999999999 Cl
   0.2500000000000000    0.8009000000000001    0.6991000000000002 Cl
   0.8008999999999999    0.6018000000000000    0.5508999999999999 Cl
   0.5509000000000001    0.2500000000000000    0.9491000000000002 Cl
   0.9491000000000002    0.5508999999999999    0.2500000000000000 Cl
   0.6991000000000001    0.9491000000000002    0.8982000000000000 Cl
   0.8982000000000000    0.6991000000000001    0.9491000000000002 Cl
   0.6018000000000000    0.5508999999999999    0.8008999999999999 Cl
   0.5508999999999999    0.8008999999999999    0.6018000000000000 Cl
   0.9491000000000002    0.8982000000000000    0.6991000000000001 Cl
   0.6991000000000002    0.2500000000000001    0.8009000000000001 Cl
   0.8009000000000001    0.6991000000000001    0.2500000000000000 Cl
   0.2500000000000001    0.9491000000000003    0.5509000000000001 Cl
   0.7500000000000000    0.1991000000000000    0.3009000000000000 Cl
   0.1991000000000000    0.3982000000000000    0.4491000000000000 Cl
   0.4490999999999999    0.7500000000000000    0.0509000000000000 Cl
   0.0509000000000001    0.4491000000000001    0.7500000000000001 Cl
   0.3009000000000000    0.0509000000000000    0.1018000000000000 Cl
   0.1018000000000000    0.3009000000000000    0.0509000000000000 Cl
   0.3982000000000001    0.4491000000000000    0.1991000000000000 Cl
   0.4491000000000000    0.1991000000000000    0.3982000000000001 Cl
   0.0509000000000000    0.1018000000000000    0.3009000000000000 Cl
   0.3009000000000001    0.7500000000000000    0.1991000000000000 Cl
   0.1991000000000000    0.3009000000000000    0.7500000000000000 Cl
   0.7500000000000001    0.0509000000000000    0.4490999999999999 Cl
