Ca2 Mg4
1.0
   1.7745679999999999    6.4167389999999997    0.0000000000000000
  -1.7745679999999999    6.4167389999999997    0.0000000000000000
   0.0000000000000000    2.3693510000000000    7.5196990000000001
Ca Mg
2 4
direct
   0.8254050000000001    0.8254050000000001    0.6354480000000001 Ca
   0.1745950000000000    0.1745950000000000    0.3645520000000000 Ca
   0.1367890000000000    0.1367890000000000    0.9675420000000001 Mg
   0.5306390000000000    0.5306390000000000    0.7276090000000000 Mg
   0.4693609999999999    0.4693609999999999    0.2723910000000000 Mg
   0.8632109999999998    0.8632109999999998    0.0324580000000000 Mg
