Yb2 Si4
1.0
  -2.1086559999999999    2.1086559999999999    6.7774159999999997
   2.1086559999999999   -2.1086559999999999    6.7774159999999997
   2.1086559999999999    2.1086559999999999   -6.7774159999999997
Yb Si
2 4
direct
   0.2500000000000000    0.7500000000000000    0.5000000000000000 Yb
   0.5000000000000000    0.5000000000000000    0.0000000000000000 Yb
   0.0841680000000000    0.0841680000000000    0.0000000000000000 Si
   0.8341680000000000    0.3341680000000001    0.5000000000000000 Si
   0.6658320000000000    0.1658320000000000    0.5000000000000000 Si
   0.9158320000000000    0.9158320000000000    0.0000000000000000 Si
