Hf10 Ni30
1.0
   2.6333009999999999   -4.5610109999999997    0.0000000000000000
   2.6333009999999999    4.5610109999999997    0.0000000000000000
   0.0000000000000000    0.0000000000000000   21.4105530000000002
Hf Ni
10 30
direct
   0.3333329999999999    0.6666670000000000    0.9538530000000000 Hf
   0.6666670000000000    0.3333329999999999    0.4538530000000001 Hf
   0.6666670000000000    0.3333329999999999    0.0461470000000000 Hf
   0.3333329999999999    0.6666670000000000    0.5461470000000000 Hf
   0.3333329999999999    0.6666670000000000    0.1510670000000000 Hf
   0.6666670000000000    0.3333329999999999    0.6510670000000000 Hf
   0.6666670000000000    0.3333329999999999    0.8489330000000002 Hf
   0.3333329999999999    0.6666670000000000    0.3489330000000000 Hf
   0.0000000000000000    0.0000000000000000    0.7500000000000001 Hf
   0.0000000000000000    0.0000000000000000    0.2500000000000000 Hf
   0.8322320000000000    0.1677680000000000    0.3504180000000000 Ni
   0.8322320000000000    0.6644650000000000    0.3504180000000000 Ni
   0.3355350000000000    0.1677680000000000    0.3504180000000000 Ni
   0.6644650000000000    0.8322320000000000    0.8504180000000001 Ni
   0.1677680000000000    0.3355350000000000    0.6495820000000001 Ni
   0.1677680000000000    0.8322320000000000    0.8504180000000001 Ni
   0.1677680000000000    0.3355350000000000    0.8504180000000001 Ni
   0.8322320000000000    0.1677680000000000    0.1495820000000000 Ni
   0.3355350000000000    0.1677680000000000    0.1495820000000000 Ni
   0.6644650000000000    0.8322320000000000    0.6495820000000001 Ni
   0.5106530000000000    0.0213060000000000    0.2500000000000000 Ni
   0.4893469999999999    0.5106530000000000    0.7500000000000001 Ni
   0.0213060000000000    0.5106530000000000    0.7500000000000001 Ni
   0.9786940000000000    0.4893470000000000    0.2500000000000000 Ni
   0.5106530000000000    0.4893469999999999    0.2500000000000000 Ni
   0.4893470000000000    0.9786940000000000    0.7500000000000001 Ni
   0.1562950000000000    0.3125900000000000    0.0511930000000000 Ni
   0.8437050000000000    0.1562950000000000    0.5511930000000000 Ni
   0.3125900000000000    0.1562950000000000    0.5511930000000000 Ni
   0.6874099999999999    0.8437049999999999    0.0511930000000000 Ni
   0.1562950000000000    0.8437050000000000    0.0511930000000000 Ni
   0.8437049999999999    0.6874099999999999    0.9488070000000000 Ni
   0.8437050000000000    0.1562950000000000    0.9488070000000000 Ni
   0.8437049999999999    0.6874099999999999    0.5511930000000000 Ni
   0.3125900000000000    0.1562950000000000    0.9488070000000000 Ni
   0.6874099999999999    0.8437049999999999    0.4488070000000001 Ni
   0.1562950000000000    0.3125900000000000    0.4488070000000001 Ni
   0.1562950000000000    0.8437050000000000    0.4488070000000001 Ni
   0.8322320000000000    0.6644650000000000    0.1495820000000000 Ni
   0.1677680000000000    0.8322320000000000    0.6495820000000001 Ni
