Ca8 Cu4
1.0
   4.1492279999999999    0.0000000000000000    0.0000000000000000
   0.0000000000000000    6.0325210000000000    0.0000000000000000
   0.0000000000000000    0.0000000000000000   14.5021550000000001
Ca Cu
8 4
direct
   0.7500000000000000    0.1310890000000000    0.8342939999999999 Ca
   0.2500000000000000    0.8689110000000000    0.1657060000000000 Ca
   0.7500000000000000    0.6310889999999999    0.6657059999999999 Ca
   0.2500000000000000    0.3689110000000000    0.3342940000000000 Ca
   0.7500000000000000    0.3678139999999999    0.0919680000000000 Ca
   0.2500000000000000    0.6321860000000000    0.9080319999999998 Ca
   0.7500000000000000    0.8678140000000000    0.4080320000000000 Ca
   0.2500000000000000    0.1321860000000000    0.5919679999999999 Ca
   0.7500000000000000    0.3890330000000000    0.4834700000000000 Cu
   0.2500000000000000    0.6109670000000000    0.5165300000000000 Cu
   0.7500000000000000    0.8890329999999999    0.0165300000000000 Cu
   0.2500000000000000    0.1109670000000000    0.9834699999999998 Cu
