Nb20 Ge16
1.0
   6.7782090000000004    0.0000000000000000    0.0000000000000000
   0.0000000000000000    6.8445299999999998    0.0000000000000000
   0.0000000000000000    0.0000000000000000   13.2445740000000001
Nb Ge
20 16
direct
   0.0195320000000000    0.3247680000000000    0.9138260000000000 Nb
   0.5195320000000000    0.1752320000000000    0.5861740000000000 Nb
   0.4804680000000000    0.8247680000000001    0.0861740000000000 Nb
   0.9804680000000000    0.6752320000000001    0.4138260000000001 Nb
   0.0195320000000000    0.3247680000000000    0.5861740000000000 Nb
   0.5195320000000000    0.1752320000000000    0.9138260000000000 Nb
   0.4804680000000000    0.8247680000000001    0.4138260000000001 Nb
   0.9804680000000000    0.6752320000000001    0.0861740000000000 Nb
   0.8463940000000000    0.8357750000000000    0.8755270000000001 Nb
   0.3463940000000000    0.6642250000000000    0.6244730000000001 Nb
   0.6536060000000000    0.3357750000000000    0.1244730000000000 Nb
   0.1536060000000000    0.1642250000000000    0.3755270000000000 Nb
   0.1536060000000000    0.1642250000000000    0.1244730000000000 Nb
   0.6536060000000000    0.3357750000000000    0.3755270000000000 Nb
   0.3463940000000000    0.6642250000000000    0.8755270000000001 Nb
   0.8463940000000000    0.8357750000000000    0.6244730000000001 Nb
   0.1720570000000000    0.9918520000000000    0.7500000000000000 Nb
   0.6720570000000001    0.5081480000000000    0.7500000000000000 Nb
   0.3279430000000000    0.4918520000000001    0.2500000000000000 Nb
   0.8279430000000000    0.0081480000000000    0.2500000000000000 Nb
   0.6892490000000000    0.5346230000000000    0.9588150000000001 Ge
   0.1892490000000000    0.9653770000000000    0.5411850000000000 Ge
   0.8107510000000001    0.0346230000000000    0.0411850000000000 Ge
   0.3107510000000000    0.4653770000000000    0.4588150000000000 Ge
   0.3107510000000000    0.4653770000000000    0.0411850000000000 Ge
   0.8107510000000001    0.0346230000000000    0.4588150000000000 Ge
   0.1892490000000000    0.9653770000000000    0.9588150000000001 Ge
   0.6892490000000000    0.5346230000000000    0.5411850000000000 Ge
   0.3187780000000000    0.3396360000000000    0.7500000000000000 Ge
   0.8187780000000000    0.1603640000000000    0.7500000000000000 Ge
   0.1812220000000000    0.8396360000000000    0.2500000000000000 Ge
   0.6812220000000001    0.6603640000000000    0.2500000000000000 Ge
   0.0462080000000000    0.6037390000000000    0.7500000000000000 Ge
   0.5462080000000000    0.8962610000000001    0.7500000000000000 Ge
   0.4537920000000000    0.1037390000000000    0.2500000000000000 Ge
   0.9537920000000000    0.3962610000000000    0.2500000000000000 Ge
