Ba2 H4
1.0
   2.2279429999999998   -3.8589110000000000    0.0000000000000000
   2.2279429999999998    3.8589110000000000    0.0000000000000000
   0.0000000000000000    0.0000000000000000    6.0604129999999996
Ba H
2 4
direct
   0.3333329999999999    0.6666670000000000    0.2500000000000000 Ba
   0.6666670000000000    0.3333330000000000    0.7500000000000000 Ba
   0.6666670000000000    0.3333330000000000    0.2500000000000000 H
   0.3333329999999999    0.6666670000000000    0.7500000000000000 H
   0.0000000000000000    0.0000000000000000    0.0000000000000000 H
   0.0000000000000000    0.0000000000000000    0.5000000000000000 H
