Tb2 Cu4
1.0
  -2.1593059999999999    3.4609549999999998    3.6557490000000001
   2.1593059999999999   -3.4609549999999998    3.6557490000000001
   2.1593059999999999    3.4609549999999998   -3.6557490000000001
Tb Cu
2 4
direct
   0.2116370000000000    0.4616370000000000    0.7500000000000000 Tb
   0.7883630000000000    0.5383630000000001    0.2500000000000000 Tb
   0.3851720000000001    0.8347840000000000    0.5503880000000000 Cu
   0.6148279999999999    0.1652159999999999    0.4496120000000000 Cu
   0.2156040000000000    0.1652160000000000    0.0503880000000000 Cu
   0.7843960000000001    0.8347840000000000    0.9496120000000001 Cu
