Mg5 Ge1
1.0
   5.3143680000000000   -2.7070439999999998    0.0000000000000000
   5.3143680000000000    2.7070439999999998    0.0000000000000000
   3.9354480000000001    0.0000000000000000    4.4813890000000001
Mg Ge
5 1
direct
   0.1611550000000000    0.8388450000000000    0.5000000000000000 Mg
   0.5000000000000000    0.1611549999999999    0.8388450000000000 Mg
   0.8388449999999998    0.5000000000000001    0.1611550000000000 Mg
   0.3328920000000000    0.3328920000000000    0.3328920000000000 Mg
   0.6671079999999999    0.6671080000000000    0.6671080000000000 Mg
   0.0000000000000000    0.0000000000000000    0.0000000000000000 Ge
