Eu6 C60
1.0
  -5.4919750000000001    5.4919750000000001    5.4919750000000001
   5.4919750000000001   -5.4919750000000001    5.4919750000000001
   5.4919750000000001    5.4919750000000001   -5.4919750000000001
Eu C
6 60
direct
   0.2692910000000001    0.5000000000000000    0.7692910000000001 Eu
   0.7307090000000001    0.5000000000000000    0.2307090000000000 Eu
   0.7692910000000001    0.2692910000000000    0.5000000000000000 Eu
   0.5000000000000000    0.2307090000000000    0.7307090000000001 Eu
   0.2307090000000001    0.7307090000000001    0.5000000000000000 Eu
   0.5000000000000000    0.7692910000000001    0.2692910000000000 Eu
   0.8287369999999999    0.2771430000000000    0.9754220000000001 C
   0.1730240000000001    0.4112280000000000    0.0247920000000000 C
   0.7228570000000000    0.0245780000000000    0.1712630000000000 C
   0.7228570000000000    0.5515940000000000    0.6982790000000000 C
   0.2546520000000000    0.9339700000000001    0.3206830000000001 C
   0.6135640000000000    0.5887720000000000    0.7617960000000000 C
   0.5515940000000001    0.8287369999999999    0.8533150000000000 C
   0.6135640000000001    0.8517680000000001    0.0247920000000000 C
   0.0660300000000001    0.6793170000000001    0.7453480000000001 C
   0.1730240000000001    0.1482320000000000    0.7617960000000000 C
   0.0247920000000000    0.1730240000000001    0.4112280000000000 C
   0.6132870000000001    0.9339700000000001    0.6793170000000001 C
   0.9752080000000002    0.8269760000000003    0.5887720000000001 C
   0.3864360000000001    0.1482320000000000    0.9752080000000001 C
   0.0245780000000000    0.3017210000000001    0.8533150000000000 C
   0.1482320000000000    0.7617960000000000    0.1730240000000000 C
   0.8517680000000000    0.0247920000000000    0.6135640000000000 C
   0.9752080000000001    0.3864360000000001    0.1482320000000000 C
   0.4112280000000000    0.0247920000000000    0.1730240000000000 C
   0.5887720000000001    0.9752080000000001    0.8269760000000002 C
   0.7617960000000000    0.6135640000000000    0.5887720000000000 C
   0.8287370000000001    0.8533150000000002    0.5515940000000000 C
   0.4484060000000000    0.3017210000000000    0.2771430000000000 C
   0.0245780000000000    0.1712630000000001    0.7228570000000000 C
   0.3017210000000000    0.2771430000000000    0.4484060000000000 C
   0.8269760000000000    0.5887720000000000    0.9752080000000001 C
   0.3206830000000000    0.3867130000000000    0.0660300000000000 C
   0.1466850000000000    0.9754220000000002    0.6982790000000001 C
   0.0247920000000000    0.6135640000000000    0.8517680000000000 C
   0.8269760000000002    0.8517680000000000    0.2382040000000000 C
   0.5515940000000000    0.6982790000000001    0.7228570000000000 C
   0.9754220000000000    0.6982790000000000    0.1466850000000000 C
   0.2382040000000000    0.3864360000000001    0.4112280000000000 C
   0.4484060000000000    0.1712630000000000    0.1466850000000000 C
   0.6793170000000001    0.7453470000000000    0.0660300000000000 C
   0.1466850000000000    0.4484060000000000    0.1712630000000000 C
   0.6793170000000001    0.6132869999999999    0.9339700000000000 C
   0.8533150000000000    0.5515940000000000    0.8287369999999999 C
   0.1482320000000001    0.9752080000000001    0.3864360000000001 C
   0.3206830000000001    0.2546520000000000    0.9339700000000001 C
   0.0660300000000000    0.3206830000000000    0.3867130000000000 C
   0.6982790000000001    0.7228570000000000    0.5515940000000000 C
   0.1712630000000000    0.7228570000000000    0.0245780000000000 C
   0.2771430000000000    0.4484060000000000    0.3017210000000000 C
   0.8533150000000000    0.0245780000000000    0.3017210000000001 C
   0.5887720000000001    0.7617960000000000    0.6135640000000000 C
   0.3867130000000000    0.0660300000000000    0.3206830000000000 C
   0.6982790000000001    0.1466850000000000    0.9754220000000002 C
   0.3017210000000001    0.8533150000000002    0.0245780000000001 C
   0.2382040000000001    0.8269760000000002    0.8517680000000001 C
   0.9339700000000000    0.3206830000000001    0.2546520000000000 C
   0.4112280000000000    0.2382040000000001    0.3864360000000001 C
   0.2771430000000001    0.9754220000000001    0.8287369999999998 C
   0.7453470000000001    0.0660300000000000    0.6793170000000001 C
   0.7617960000000000    0.1730240000000000    0.1482320000000000 C
   0.3864360000000001    0.4112280000000000    0.2382040000000000 C
   0.8517680000000001    0.2382040000000001    0.8269760000000002 C
   0.9339700000000001    0.6793170000000001    0.6132870000000000 C
   0.9754220000000001    0.8287369999999999    0.2771430000000000 C
   0.1712630000000000    0.1466850000000000    0.4484060000000000 C
