Si18 O36
1.0
   8.3230670000000000    0.0000000000000000    0.0000000000000000
   4.1588409999999998    7.2112069999999999    0.0000000000000000
   0.0634580000000000    0.0221830000000000   10.4266279999999991
Si O
18 36
direct
   0.4583380000000002    0.8271709999999999    0.4138209999999999 Si
   0.1255730000000000    0.4991599999999999    0.7509770000000000 Si
   0.7888110000000000    0.1644480000000000    0.0842760000000000 Si
   0.2069880000000001    0.4607879999999999    0.4179970000000001 Si
   0.8756990000000000    0.1306180000000000    0.7490880000000000 Si
   0.5392550000000002    0.7936740000000000    0.0841990000000000 Si
   0.8350160000000000    0.2099310000000000    0.4187960000000000 Si
   0.4991420000000001    0.8789149999999999    0.7485039999999999 Si
   0.1608630000000000    0.5455759999999998    0.0810600000000000 Si
   0.1243010000000001    0.8693820000000000    0.2509120000000000 Si
   0.7930119999999999    0.5392120000000000    0.5820030000000000 Si
   0.4607450000000001    0.2063260000000000    0.9158009999999999 Si
   0.5008580000000000    0.1210850000000000    0.2514960000000000 Si
   0.1649839999999999    0.7900689999999999    0.5812040000000001 Si
   0.8391370000000002    0.4544239999999999    0.9189399999999999 Si
   0.8744270000000001    0.5008400000000000    0.2490230000000000 Si
   0.5416620000000000    0.1728290000000000    0.5861790000000000 Si
   0.2111890000000000    0.8355519999999999    0.9157240000000000 Si
   0.6682800000000001    0.6738729999999999    0.2086780000000000 O
   0.3364340000000001    0.3423380000000000    0.5423130000000000 O
   0.0022140000000000    0.0087400000000000    0.8735300000000000 O
   0.1577360000000001    0.6677200000000000    0.2075590000000000 O
   0.8389880000000000    0.3300620000000000    0.5442730000000000 O
   0.4967900000000000    0.0009320000000000    0.8745560000000000 O
   0.6656560000000002    0.1619870000000000    0.2090870000000000 O
   0.3325250000000000    0.8329279999999999    0.5390480000000000 O
   0.0016930000000000    0.4982290000000000    0.8765480000000000 O
   0.0032450000000000    0.0051600000000000    0.3730600000000000 O
   0.6689280000000002    0.6739299999999999    0.7054770000000000 O
   0.3322750000000000    0.3399150000000000    0.0406140000000000 O
   0.5011540000000001    0.9935050000000000    0.3733360000000000 O
   0.1681680000000001    0.6648490000000000    0.7073679999999999 O
   0.8269660000000000    0.3331509999999999    0.0421220000000000 O
   0.9982750000000002    0.5023380000000000    0.3762220000000000 O
   0.6676640000000000    0.1707300000000000    0.7090109999999999 O
   0.3334040000000000    0.8314140000000000    0.0400760000000000 O
   0.6665960000000000    0.1685860000000000    0.9599240000000000 O
   0.3323360000000001    0.8292700000000001    0.2909890000000000 O
   0.0017250000000001    0.4976620000000000    0.6237780000000001 O
   0.6677250000000001    0.6600849999999999    0.9593860000000000 O
   0.3310720000000000    0.3260700000000000    0.2945230000000000 O
   0.9967550000000003    0.9948399999999999    0.6269400000000001 O
   0.1730339999999999    0.6668490000000000    0.9578780000000000 O
   0.8318319999999998    0.3351510000000000    0.2926320000000000 O
   0.4988460000000000    0.0064950000000000    0.6266640000000000 O
   0.9977860000000000    0.9912599999999999    0.1264700000000000 O
   0.6635660000000001    0.6576620000000000    0.4576870000000000 O
   0.3317200000000001    0.3261269999999999    0.7913219999999999 O
   0.9983070000000001    0.5017710000000000    0.1234520000000000 O
   0.6674750000000002    0.1670720000000000    0.4609519999999999 O
   0.3343440000000001    0.8380129999999999    0.7909129999999999 O
   0.5032100000000004    0.9990679999999998    0.1254440000000000 O
   0.1610120000000000    0.6699379999999999    0.4557269999999999 O
   0.8422640000000001    0.3322800000000000    0.7924410000000000 O
