Y26 Cd116
1.0
   7.8953660000000001  -13.6751749999999994    0.0000000000000000
   7.8953660000000001   13.6751749999999994    0.0000000000000000
   0.0000000000000000    0.0000000000000000   15.5676539999999992
Y Cd
26 116
direct
   0.4121480000000000    0.2060740000000000    0.5528090000000001 Y
   0.8713379999999999    0.7426759999999999    0.2500000000000000 Y
   0.2060740000000000    0.4121480000000000    0.0528090000000000 Y
   0.0888340000000000    0.5444170000000000    0.7500000000000001 Y
   0.7939260000000000    0.5878520000000002    0.9471910000000000 Y
   0.7939260000000001    0.2060740000000001    0.5528090000000001 Y
   0.9111660000000000    0.4555830000000000    0.2500000000000000 Y
   0.7939260000000001    0.2060740000000001    0.9471910000000000 Y
   0.7939260000000000    0.5878520000000002    0.5528090000000001 Y
   0.4555830000000000    0.9111660000000000    0.7500000000000001 Y
   0.1286619999999999    0.8713379999999999    0.7500000000000001 Y
   0.8713379999999999    0.1286619999999999    0.2500000000000000 Y
   0.5878520000000002    0.7939260000000000    0.0528090000000000 Y
   0.5878520000000002    0.7939260000000000    0.4471910000000001 Y
   0.2060740000000001    0.7939260000000001    0.4471910000000001 Y
   0.0000000000000000    0.0000000000000000    0.0000000000000000 Y
   0.4555830000000001    0.5444170000000002    0.7500000000000001 Y
   0.5444170000000000    0.0888340000000000    0.2500000000000000 Y
   0.1286620000000000    0.2573240000000000    0.7500000000000001 Y
   0.7426759999999999    0.8713379999999999    0.7500000000000001 Y
   0.2060740000000000    0.4121480000000000    0.4471910000000001 Y
   0.4121480000000000    0.2060740000000000    0.9471910000000000 Y
   0.0000000000000000    0.0000000000000000    0.5000000000000000 Y
   0.2573240000000000    0.1286620000000000    0.2500000000000000 Y
   0.2060740000000001    0.7939260000000001    0.0528090000000000 Y
   0.5444170000000002    0.4555830000000001    0.2500000000000000 Y
   0.9078570000000000    0.0921429999999999    0.6557690000000000 Cd
   0.0000000000000000    0.1974660000000000    0.0000000000000000 Cd
   0.6354440000000000    0.9641180000000001    0.6015370000000000 Cd
   0.3645560000000000    0.3286740000000000    0.3984630000000000 Cd
   0.6713260000000000    0.6354440000000000    0.1015370000000000 Cd
   0.6003180000000000    0.3996819999999999    0.0514770000000000 Cd
   0.6354440000000000    0.6713260000000000    0.8984630000000001 Cd
   0.9641180000000001    0.6354440000000000    0.1015370000000000 Cd
   0.2006359999999999    0.6003180000000000    0.9485230000000000 Cd
   0.0921429999999999    0.9078570000000000    0.3442310000000000 Cd
   0.5596740000000000    0.1193480000000000    0.6474180000000002 Cd
   0.8157149999999999    0.9078570000000000    0.3442310000000000 Cd
   0.7337250000000000    0.2662749999999999    0.7500000000000001 Cd
   0.4403260000000001    0.8806520000000001    0.3525820000000001 Cd
   0.3286740000000000    0.3645560000000000    0.8984630000000001 Cd
   0.0358820000000000    0.6713260000000000    0.8984630000000001 Cd
   0.5317400000000000    0.7658699999999999    0.8414600000000000 Cd
   0.8025340000000000    0.8025340000000000    0.0000000000000000 Cd
   0.3645560000000000    0.0358820000000000    0.3984630000000000 Cd
   0.0000000000000000    0.1974660000000000    0.5000000000000000 Cd
   0.9201319999999999    0.6449499999999999    0.7500000000000001 Cd
   0.1974660000000000    0.1974660000000000    0.5000000000000000 Cd
   0.6713260000000000    0.0358820000000000    0.1015370000000000 Cd
   0.6003180000000000    0.3996819999999999    0.4485230000000000 Cd
   0.7658699999999999    0.5317400000000000    0.3414600000000000 Cd
   0.7658699999999999    0.5317400000000000    0.1585400000000000 Cd
   0.9641180000000001    0.3286740000000001    0.1015370000000000 Cd
   0.6666670000000000    0.3333330000000000    0.5967209999999999 Cd
   0.2751820000000000    0.9201319999999999    0.2500000000000000 Cd
   0.4682600000000000    0.2341300000000000    0.3414600000000000 Cd
   0.0358820000000000    0.3645560000000000    0.6015370000000000 Cd
   0.3333330000000000    0.6666670000000000    0.7500000000000001 Cd
   0.7248180000000000    0.0798680000000000    0.7500000000000001 Cd
   0.0358820000000000    0.3645560000000000    0.8984630000000001 Cd
   0.8025340000000000   -0.0000000000000000    0.5000000000000000 Cd
   0.6003180000000000    0.2006359999999999    0.4485230000000000 Cd
   0.6713260000000000    0.0358820000000000    0.3984630000000000 Cd
   0.3550500000000000    0.0798680000000000    0.7500000000000001 Cd
   0.9201319999999999    0.2751820000000000    0.7500000000000001 Cd
  -0.0000000000000000    0.8025340000000000    0.0000000000000000 Cd
   0.4403260000000000    0.5596740000000000    0.1474180000000000 Cd
   0.1193480000000000    0.5596740000000000    0.3525820000000001 Cd
   0.5000000000000000   -0.0000000000000000    0.5000000000000000 Cd
   0.9078570000000000    0.8157149999999999    0.8442310000000000 Cd
   0.0921430000000000    0.1842850000000000    0.1557690000000000 Cd
   0.0358820000000000    0.6713260000000000    0.6015370000000000 Cd
   0.3286740000000000    0.3645560000000000    0.6015370000000000 Cd
   0.5596740000000000    0.1193480000000000    0.8525820000000000 Cd
   0.2006359999999999    0.6003180000000000    0.5514770000000000 Cd
   0.6354440000000000    0.6713260000000000    0.6015370000000000 Cd
   0.4403260000000000    0.5596740000000000    0.3525820000000001 Cd
   0.0000000000000000    0.0000000000000000    0.2500000000000000 Cd
   0.6003180000000000    0.2006359999999999    0.0514770000000000 Cd
   0.7993640000000000    0.3996819999999999    0.4485230000000000 Cd
   0.7337250000000000    0.4674499999999999    0.7500000000000001 Cd
   0.3996819999999999    0.7993640000000000    0.9485230000000000 Cd
   0.6666670000000000    0.3333330000000000    0.9032790000000002 Cd
   0.2341300000000000    0.4682600000000000    0.8414600000000000 Cd
   0.7658700000000001    0.2341300000000000    0.1585400000000000 Cd
   0.2751820000000000    0.3550500000000000    0.2500000000000000 Cd
   0.3996819999999999    0.6003180000000000    0.5514770000000000 Cd
   0.3645560000000000    0.0358820000000000    0.1015370000000000 Cd
   0.7658700000000001    0.2341300000000000    0.3414600000000000 Cd
   0.8157149999999999    0.9078570000000000    0.1557690000000000 Cd
   0.3286740000000001    0.9641180000000001    0.8984630000000001 Cd
   0.8806520000000001    0.4403260000000001    0.8525820000000000 Cd
   0.9078570000000000    0.8157149999999999    0.6557690000000000 Cd
   0.1193480000000000    0.5596740000000000    0.1474180000000000 Cd
   0.9641180000000001    0.3286740000000001    0.3984630000000000 Cd
   0.6449499999999999    0.7248180000000000    0.2500000000000000 Cd
   0.5596740000000000    0.4403260000000000    0.8525820000000000 Cd
   0.4682600000000000    0.2341300000000000    0.1585400000000000 Cd
   0.8025340000000000    0.8025340000000000    0.5000000000000000 Cd
   0.0000000000000000    0.0000000000000000    0.7500000000000001 Cd
   0.1842850000000000    0.0921430000000000    0.6557690000000000 Cd
   0.1974660000000000    0.1974660000000000    0.0000000000000000 Cd
   0.1974660000000000    0.0000000000000000    0.5000000000000000 Cd
   0.0798680000000000    0.3550500000000000    0.2500000000000000 Cd
   0.6713260000000000    0.6354440000000000    0.3984630000000000 Cd
   0.5317400000000000    0.7658699999999999    0.6585400000000000 Cd
   0.7993640000000000    0.3996819999999999    0.0514770000000000 Cd
   0.3645560000000000    0.3286740000000000    0.1015370000000000 Cd
   0.2341300000000000    0.7658700000000001    0.8414600000000000 Cd
   0.6666670000000000    0.3333330000000000    0.2500000000000000 Cd
   0.4403260000000001    0.8806520000000001    0.1474180000000000 Cd
   0.5000000000000000    0.5000000000000000    0.0000000000000000 Cd
  -0.0000000000000000    0.5000000000000000    0.5000000000000000 Cd
   0.2341300000000000    0.7658700000000001    0.6585400000000000 Cd
   0.3333330000000000    0.6666670000000000    0.4032790000000000 Cd
   0.1974660000000000    0.0000000000000000    0.0000000000000000 Cd
   0.0798680000000000    0.7248180000000000    0.2500000000000000 Cd
  -0.0000000000000000    0.8025340000000000    0.5000000000000000 Cd
   0.6354440000000000    0.9641180000000001    0.8984630000000001 Cd
   0.5000000000000000    0.5000000000000000    0.5000000000000000 Cd
   0.1842850000000000    0.0921430000000000    0.8442310000000000 Cd
   0.5325500000000000    0.2662749999999999    0.7500000000000001 Cd
   0.0921429999999999    0.9078570000000000    0.1557690000000000 Cd
   0.9078570000000000    0.0921429999999999    0.8442310000000000 Cd
   0.5596740000000000    0.4403260000000000    0.6474180000000002 Cd
   0.3550500000000000    0.2751820000000000    0.7500000000000001 Cd
   0.2662749999999999    0.7337250000000000    0.2500000000000000 Cd
   0.9641180000000001    0.6354440000000000    0.3984630000000000 Cd
   0.3333330000000000    0.6666670000000000    0.0967210000000000 Cd
   0.2662749999999999    0.5325500000000000    0.2500000000000000 Cd
   0.8025340000000000   -0.0000000000000000    0.0000000000000000 Cd
   0.6449499999999999    0.9201319999999999    0.2500000000000000 Cd
   0.5000000000000000   -0.0000000000000000    0.0000000000000000 Cd
   0.8806520000000001    0.4403260000000001    0.6474180000000002 Cd
   0.3286740000000001    0.9641180000000001    0.6015370000000000 Cd
  -0.0000000000000000    0.5000000000000000    0.0000000000000000 Cd
   0.0921430000000000    0.1842850000000000    0.3442310000000000 Cd
   0.3996819999999999    0.6003180000000000    0.9485230000000000 Cd
   0.2341300000000000    0.4682600000000000    0.6585400000000000 Cd
   0.7248180000000000    0.6449499999999999    0.7500000000000001 Cd
   0.3996819999999999    0.7993640000000000    0.5514770000000000 Cd
   0.4674499999999999    0.7337250000000000    0.2500000000000000 Cd
