Ca2 Br4
1.0
   4.3835889999999997    0.0000000000000000    0.0000000000000000
   0.0000000000000000    6.7011250000000002    0.0000000000000000
   0.0000000000000000    0.0000000000000000    7.0032810000000003
Ca Br
2 4
direct
   0.0000000000000000    0.0000000000000000    0.0000000000000000 Ca
   0.5000000000000000    0.5000000000000000    0.5000000000000000 Ca
   0.0000000000000000    0.2764100000000000    0.3268330000000000 Br
   0.0000000000000000    0.7235900000000000    0.6731670000000001 Br
   0.5000000000000000    0.7764100000000002    0.1731670000000000 Br
   0.5000000000000000    0.2235900000000000    0.8268330000000002 Br
