Ba6 Ge10
1.0
   4.3382160000000001   -5.2010230000000002    0.0000000000000000
   4.3382160000000001    5.2010230000000002    0.0000000000000000
   0.0000000000000000    0.0000000000000000   10.4758669999999992
Ba Ge
6 10
direct
   0.6523860000000000    0.6523860000000000    0.2500000000000000 Ba
   0.3476140000000000    0.3476140000000000    0.7500000000000000 Ba
   0.2101060000000000    0.7898940000000001    0.5000000000000000 Ba
   0.2101060000000000    0.7898940000000001    0.0000000000000000 Ba
   0.7898940000000001    0.2101060000000000    0.5000000000000000 Ba
   0.7898940000000001    0.2101060000000000    0.0000000000000000 Ba
   0.4629860000000000    0.1044360000000000    0.2500000000000000 Ge
   0.8955640000000000    0.5370140000000001    0.7500000000000000 Ge
   0.5370140000000001    0.8955640000000000    0.7500000000000000 Ge
   0.1044360000000000    0.4629860000000000    0.2500000000000000 Ge
   0.0676740000000000    0.0676740000000000    0.2500000000000000 Ge
   0.9323260000000000    0.9323260000000000    0.7500000000000000 Ge
   0.2979310000000000    0.2979310000000000    0.4289390000000000 Ge
   0.7020690000000001    0.7020690000000001    0.5710610000000002 Ge
   0.2979310000000000    0.2979310000000000    0.0710610000000000 Ge
   0.7020690000000001    0.7020690000000001    0.9289390000000000 Ge
