Mg2 Sb4
1.0
   1.6109590000000000    6.2921079999999998    0.0000000000000000
  -1.6109590000000000    6.2921079999999998    0.0000000000000000
   0.0000000000000000    1.5492530000000000    8.0830190000000002
Mg Sb
2 4
direct
   0.6322269999999999    0.6322269999999999    0.0068890000000000 Mg
   0.3677730000000000    0.3677730000000000    0.9931110000000000 Mg
   0.2384070000000000    0.2384070000000000    0.7104920000000000 Sb
   0.0013020000000000    0.0013020000000000    0.7092380000000000 Sb
   0.9986980000000000    0.9986980000000000    0.2907620000000000 Sb
   0.7615929999999999    0.7615929999999999    0.2895080000000000 Sb
