Ga6 B2
1.0
   3.5316529999999999   -6.1170030000000004    0.0000000000000000
   3.5316529999999999    6.1170030000000004    0.0000000000000000
   0.0000000000000000    0.0000000000000000    3.1653790000000002
Ga B
6 2
direct
   0.1956010000000001    0.3912020000000000    0.2500000000000000 Ga
   0.6087980000000001    0.8043990000000000    0.2500000000000000 Ga
   0.1956010000000000    0.8043990000000000    0.2500000000000000 Ga
   0.8043990000000000    0.6087980000000001    0.7500000000000000 Ga
   0.3912020000000000    0.1956010000000001    0.7500000000000000 Ga
   0.8043990000000000    0.1956010000000000    0.7500000000000000 Ga
   0.3333330000000000    0.6666670000000000    0.7500000000000000 B
   0.6666670000000000    0.3333330000000000    0.2500000000000000 B
