Ti4 O8
1.0
  -2.9731600000000000    3.2873690000000000    3.2874020000000002
   2.9731600000000000   -3.2873690000000000    3.2874020000000002
   2.9731600000000000    3.2873690000000000   -3.2874020000000002
Ti O
4 8
direct
   0.5047550000000001    0.7547550000000001    0.7500000000000000 Ti
   0.4952450000000000    0.2452450000000000    0.2500000000000000 Ti
   0.0000000000000000   -0.0000000000000000    0.5000000000000000 Ti
   0.0000000000000000    0.5000000000000000   -0.0000000000000000 Ti
   0.3049190000000001    0.3047700000000000    0.4998510000000000 O
   0.1954840000000001    0.2503830000000000    0.9451010000000001 O
   0.3049190000000001    0.8050680000000001    0.0001490000000000 O
   0.8052820000000001    0.2503830000000001    0.5548990000000000 O
   0.1947180000000000    0.7496170000000000    0.4451010000000000 O
   0.8045160000000000    0.7496169999999999    0.0548989999999999 O
   0.6950810000000001    0.1949320000000000    0.9998510000000002 O
   0.6950809999999999    0.6952300000000000    0.5001490000000000 O
