Rb6 Cr2
1.0
   4.4476789999999999   -7.7036069999999999    0.0000000000000000
   4.4476789999999999    7.7036069999999999    0.0000000000000000
   0.0000000000000000    0.0000000000000000    6.9743160000000000
Rb Cr
6 2
direct
   0.1768689999999999    0.3537370000000000    0.2500000000000000 Rb
   0.6462629999999999    0.8231310000000001    0.2500000000000000 Rb
   0.1768689999999999    0.8231309999999999    0.2500000000000000 Rb
   0.8231309999999999    0.6462630000000000    0.7500000000000000 Rb
   0.3537370000000000    0.1768690000000000    0.7500000000000000 Rb
   0.8231309999999998    0.1768690000000000    0.7500000000000000 Rb
   0.3333329999999999    0.6666670000000000    0.7500000000000000 Cr
   0.6666669999999999    0.3333330000000000    0.2500000000000000 Cr
