V4 O10
1.0
   1.8045580000000001   -5.4169570000000000    0.0000000000000000
   1.8045580000000001    5.4169570000000000    0.0000000000000000
   0.0000000000000000    0.0000000000000000   11.5354949999999992
V O
4 10
direct
   0.7049680000000000    0.2950320000000000    0.6028140000000000 V
   0.2950320000000000    0.7049680000000000    0.3971860000000000 V
   0.2950320000000000    0.7049680000000000    0.1028140000000000 V
   0.7049680000000000    0.2950320000000000    0.8971859999999999 V
   0.7633709999999999    0.2366290000000000    0.7500000000000000 O
   0.5574700000000000    0.4425299999999999    0.6148510000000000 O
   0.2493800000000000    0.7506200000000000    0.5684650000000000 O
   0.7506200000000000    0.2493800000000000    0.4315350000000001 O
   0.4425299999999999    0.5574700000000000    0.3851490000000000 O
   0.2366290000000000    0.7633709999999999    0.2500000000000000 O
   0.4425299999999999    0.5574700000000000    0.1148510000000000 O
   0.5574700000000000    0.4425299999999999    0.8851490000000000 O
   0.7506200000000000    0.2493800000000000    0.0684650000000000 O
   0.2493800000000000    0.7506200000000000    0.9315350000000000 O
