Co3 Ir1
1.0
   3.5825610000000001    0.0000000000000000    0.0000000000000000
   0.0000000000000000    3.5825610000000001    0.0000000000000000
   0.0000000000000000    0.0000000000000000    3.5825610000000001
Co Ir
3 1
direct
   0.0000000000000000    0.5000000000000000    0.5000000000000000 Co
   0.5000000000000000    0.0000000000000000    0.5000000000000000 Co
   0.5000000000000000    0.5000000000000000    0.0000000000000000 Co
   0.0000000000000000    0.0000000000000000    0.0000000000000000 Ir
