Rb3 Os1
1.0
   5.6957139999999997    0.0000000000000000    0.0000000000000000
   0.0000000000000000    5.6957139999999997    0.0000000000000000
   0.0000000000000000    0.0000000000000000    5.6957139999999997
Rb Os
3 1
direct
   0.0000000000000000    0.4999999999999999    0.4999999999999999 Rb
   0.4999999999999999    0.4999999999999999    0.0000000000000000 Rb
   0.4999999999999999    0.0000000000000000    0.4999999999999999 Rb
   0.0000000000000000    0.0000000000000000    0.0000000000000000 Os
