Mg3 Ga3
1.0
   1.5500719999999999   -7.6273970000000002    0.0000000000000000
   1.5500719999999999    7.6273970000000002    0.0000000000000000
   0.0000000000000000    0.0000000000000000    4.9776949999999998
Mg Ga
3 3
direct
   0.3278399999999999    0.6721599999999999    0.0000000000000000 Mg
   0.1176659999999998    0.8823339999999998    0.5000000000000000 Mg
   0.4439850000000000    0.5560150000000000    0.5000000000000000 Mg
   0.0006129999999999    0.9993870000000000    0.0000000000000000 Ga
   0.6661169999999998    0.3338829999999999    0.0000000000000000 Ga
   0.7771109999999999    0.2228889999999999    0.5000000000000000 Ga
