Tc4 S8
1.0
   6.4080250000000003    0.0000000000000000    0.0000000000000000
   3.1422390000000000    5.7097110000000004    0.0000000000000000
   1.5902820000000000    2.5166949999999999    6.9273179999999996
Tc S
4 8
direct
   0.5114449999999999    0.2854539999999999    0.5021110000000000 Tc
   0.4885549999999999    0.7145459999999999    0.4978890000000001 Tc
   0.9381020000000000    0.3094129999999999    0.5077739999999999 Tc
   0.0618979999999999    0.6905870000000000    0.4922260000000000 Tc
   0.3225810000000000    0.1699670000000000    0.3296540000000000 S
   0.6774190000000000    0.8300330000000000    0.6703460000000000 S
   0.8592189999999998    0.1515860000000000    0.3067970000000000 S
   0.1407810000000001    0.8484140000000000    0.6932030000000000 S
   0.3626579999999999    0.6693550000000001    0.2507380000000000 S
   0.6373419999999999    0.3306450000000000    0.7492620000000000 S
   0.8249489999999999    0.7009220000000000    0.2749440000000000 S
   0.1750510000000000    0.2990780000000000    0.7250560000000000 S
