Sr2 Mg4
1.0
   1.7887180000000000    6.2925570000000004    0.0000000000000000
  -1.7887180000000000    6.2925570000000004    0.0000000000000000
   0.0000000000000000    3.0795290000000000    8.4489190000000001
Sr Mg
2 4
direct
   0.8448930000000000    0.8448930000000000    0.6253420000000000 Sr
   0.1551070000000000    0.1551070000000000    0.3746580000000000 Sr
   0.1450190000000000    0.1450190000000000    0.9779310000000000 Mg
   0.5418040000000000    0.5418040000000000    0.7674530000000001 Mg
   0.4581960000000000    0.4581960000000000    0.2325470000000000 Mg
   0.8549810000000000    0.8549810000000000    0.0220690000000000 Mg
