Mg4 Ag2
1.0
   2.4343230000000000   -5.0715230000000000    0.0000000000000000
   2.4343230000000000    5.0715230000000000    0.0000000000000000
   0.0000000000000000    0.0000000000000000    4.8369369999999998
Mg Ag
4 2
direct
   0.5730470000000001    0.8819210000000000    0.2500000000000000 Mg
   0.1180790000000000    0.4269530000000000    0.7500000000000000 Mg
   0.8819210000000000    0.5730470000000001    0.2500000000000000 Mg
   0.4269530000000000    0.1180790000000000    0.7500000000000000 Mg
   0.7789380000000000    0.7789380000000000    0.7500000000000000 Ag
   0.2210620000000000    0.2210620000000000    0.2500000000000000 Ag
