Ti4 Ga6
1.0
   6.2925550000000001    0.0000000000000000    0.0000000000000000
   0.0000000000000000    6.2925550000000001    0.0000000000000000
   0.0000000000000000    0.0000000000000000    4.0064760000000001
Ti Ga
4 6
direct
   0.8734830000000001    0.6964700000000000    0.5000000000000000 Ti
   0.6964700000000000    0.1265170000000000    0.5000000000000000 Ti
   0.3035300000000001    0.8734830000000001    0.5000000000000000 Ti
   0.1265170000000000    0.3035300000000001    0.5000000000000000 Ti
   0.8171860000000001    0.3955000000000001    0.0000000000000000 Ga
   0.6045000000000000    0.8171860000000001    0.0000000000000000 Ga
   0.1828140000000000    0.6045000000000000    0.0000000000000000 Ga
   0.3955000000000001    0.1828140000000000    0.0000000000000000 Ga
   0.5000000000000000    0.5000000000000000    0.5000000000000000 Ga
   0.0000000000000000    0.0000000000000000    0.0000000000000000 Ga
