Lu4 Ni4
1.0
   4.0802250000000004    0.0000000000000000    0.0000000000000000
   0.0000000000000000    5.3082649999999996    0.0000000000000000
   0.0000000000000000    0.0000000000000000    6.9090410000000002
Lu Ni
4 4
direct
   0.2500000000000000    0.3731680000000000    0.6790249999999999 Lu
   0.2500000000000000    0.1268320000000000    0.1790250000000000 Lu
   0.7500000000000000    0.6268319999999999    0.3209750000000000 Lu
   0.7500000000000000    0.8731680000000002    0.8209750000000000 Lu
   0.2500000000000000    0.8765480000000001    0.5364510000000000 Ni
   0.2500000000000000    0.6234520000000000    0.0364510000000000 Ni
   0.7500000000000000    0.1234520000000000    0.4635490000000000 Ni
   0.7500000000000000    0.3765480000000000    0.9635490000000000 Ni
