Gd2 Ga2
1.0
   2.1800299999999999   -5.5408270000000002    0.0000000000000000
   2.1800299999999999    5.5408270000000002    0.0000000000000000
   0.0000000000000000    0.0000000000000000    4.1427120000000004
Gd Ga
2 2
direct
   0.8593629999999999    0.1406369999999999    0.7500000000000001 Gd
   0.1406370000000000    0.8593630000000000    0.2500000000000000 Gd
   0.5730210000000000    0.4269789999999999    0.7500000000000001 Ga
   0.4269789999999999    0.5730210000000000    0.2500000000000000 Ga
