Ca3 As2
1.0
   5.4470169999999998    0.0000000000000000    0.0000000000000000
   0.0000000000000000    5.4470169999999998    0.0000000000000000
   0.0000000000000000    0.0000000000000000    5.4470169999999998
Ca As
3 2
direct
   0.0000000000000000    0.5000000000000000    0.5000000000000000 Ca
   0.5000000000000000    0.0000000000000000    0.5000000000000000 Ca
   0.5000000000000000    0.5000000000000000    0.0000000000000000 Ca
   0.0000000000000000    0.0000000000000000    0.0000000000000000 As
   0.5000000000000000    0.5000000000000000    0.5000000000000000 As
