Ta3 N3
1.0
   2.6167410000000002   -4.5323279999999997    0.0000000000000000
   2.6167410000000002    4.5323279999999997    0.0000000000000000
   0.0000000000000000    0.0000000000000000    2.9255030000000000
Ta N
3 3
direct
   0.0000000000000000    0.0000000000000000    0.0000000000000000 Ta
   0.3333330000000000    0.6666670000000000    0.5000000000000000 Ta
   0.6666670000000000    0.3333330000000000    0.5000000000000000 Ta
   0.3925550000000000   -0.0000000000000000    0.0000000000000000 N
   0.6074450000000000    0.6074450000000000    0.0000000000000000 N
  -0.0000000000000000    0.3925550000000000    0.0000000000000000 N
