Tm2 Se4
1.0
   4.0425969999999998    0.0000000000000000    0.0000000000000000
   0.0000000000000000    4.0425969999999998    0.0000000000000000
   0.0000000000000000    0.0000000000000000    8.2438570000000002
Tm Se
2 4
direct
   0.0000000000000000    0.5000000000000000    0.7258550000000000 Tm
   0.5000000000000000    0.0000000000000000    0.2741450000000000 Tm
   0.0000000000000000    0.0000000000000000    0.0000000000000000 Se
   0.5000000000000000    0.5000000000000000    0.0000000000000000 Se
   0.0000000000000000    0.5000000000000000    0.3710560000000000 Se
   0.5000000000000000    0.0000000000000000    0.6289439999999999 Se
