Na2 Tl2
1.0
   0.0000000000000000    3.8388260000000001    3.8388260000000001
   3.8388260000000001    0.0000000000000000    3.8388260000000001
   3.8388260000000001    3.8388260000000001    0.0000000000000000
Na Tl
2 2
direct
   0.2500000000000000    0.2500000000000000    0.2500000000000000 Na
   0.0000000000000000    0.0000000000000000    0.0000000000000000 Na
   0.7499999999999999    0.7499999999999999    0.7499999999999999 Tl
   0.4999999999999999    0.5000000000000000    0.5000000000000000 Tl
