V30 O75
1.0
  12.8319775899999993   -0.4326561700000000    0.3105322800000000
  -0.4114872200000000   12.7065923900000008    0.5344493900000000
   0.3257496300000000    0.5322368500000000   12.3210672500000005
V O
30 75
direct
   0.5793949500000000    0.8738432200000003    0.0207676600000000 V
   0.7015105000000003    0.9381333400000000    0.4326215000000000 V
   0.9180623000000001    0.7399246100000001    0.6358671400000001 V
   0.4340078400000000    0.5233819400000002    0.0722281300000000 V
   0.8935101199999999    0.9585470100000001    0.7502628499999999 V
   0.3995692500000000    0.1827571400000000    0.7418976599999999 V
   0.2630301100000000    0.6153224600000001    0.8945773600000001 V
   0.3300900400000000    0.8738193400000002    0.4202731400000000 V
   0.9487797100000002    0.0664117600000000    0.9286397599999999 V
   0.3440840100000001    0.7775627000000001    0.1005001500000000 V
   0.1754398300000000    0.0597850100000000    0.2772833700000000 V
   0.2478093500000000    0.6125928200000001    0.4635300600000000 V
   0.7579894800000000    0.6900537100000002    0.4336115400000000 V
   0.1335673200000000    0.8181963900000000    0.8085200300000001 V
   0.1820389900000000    0.9724257100000001    0.0119498000000000 V
   0.9723023400000002    0.9566051200000001    0.4822885400000000 V
   0.1951772200000000    0.3424512800000001    0.7124347500000000 V
   0.1892203400000000    0.2735834900000000    0.1891585800000000 V
   0.0471465800000000    0.5434907200000001    0.8029669000000000 V
   0.6682875500000000    0.0758902600000000    0.0355901400000000 V
   0.6788422200000003    0.2925874600000000    0.8006540700000000 V
   0.4881626700000001    0.0062566800000000    0.5937777900000000 V
   0.7317950200000002    0.4477329800000001    0.3507717000000000 V
   0.2015510500000000    0.3830669600000001    0.9838860799999999 V
   0.0615911600000000    0.4016689300000000    0.4985813500000000 V
   0.3587739500000001    0.4292742100000000    0.3154491699999999 V
   0.8194832100000000    0.2986309600000000    0.5557065500000000 V
   0.3985487900000000    0.0361378800000000    0.9344127300000000 V
   0.6321629700000000    0.6435494200000001    0.8901851200000001 V
   0.8349934500000001    0.2329734900000000    0.0005817300000000 V
   0.4300531600000001    0.8488164800000000    0.3455018900000000 O
   0.8292862400000000    0.6702910200000001    0.5605465100000000 O
   0.1804232100000000    0.3123181000000000    0.8739525900000001 O
   0.4025845900000001    0.0092542500000000    0.7843644400000001 O
   0.0866019000000000    0.4372213800000001    0.7318435300000000 O
   0.4037239900000000    0.3529563800000001    0.4098221800000000 O
   0.2752333500000000    0.2835319700000001    0.0702384900000000 O
   0.3512005000000001    0.6157763600000000    0.7976748800000000 O
   0.9319177000000001    0.3937233500000000    0.5591453199999999 O
   0.3233912100000000    0.9277949400000002    0.0298733200000000 O
   0.4567062000000001    0.1329604500000000    0.6031144000000001 O
   0.1360719800000000    0.8623296300000000    0.9484051800000000 O
   0.8261916000000000    0.0951628800000000    0.0471992800000000 O
   0.6088095100000001    0.6364453800000002    0.7620084100000000 O
   0.4176427900000001    0.1709443200000001    0.9013029600000000 O
   0.0188959500000000    0.8497321500000002    0.7530220499999999 O
   0.6908214200000000    0.4155907600000000    0.8204938100000000 O
   0.3171201200000000    0.4917455200000000    0.9946400100000000 O
   0.4968626100000001    0.9667921400000001    0.7393710300000000 O
   0.3884606899999999    0.9304700400000000    0.5391663600000000 O
   0.7571510800000001    0.6372481000000000    0.9060211699999999 O
   0.1506289700000000    0.5044974200000001    0.9136965400000001 O
   0.4660525200000000    0.3229044700000001    0.7302112200000002 O
   0.3291817500000001    0.5538378300000001    0.3629957200000000 O
   0.7059180000000002    0.2146717100000000    0.9294967899999999 O
   0.6143178200000000    0.1254950300000000    0.1377982400000000 O
   0.9783241699999999    0.0103759000000000    0.6003485300000000 O
   0.7967702900000001    0.0234153600000000    0.7085677099999999 O
   0.2955506200000000    0.4233930400000000    0.6909464500000000 O
   0.5439895500000002    0.0039107400000000    0.9601927400000000 O
   0.9967391600000001    0.0656382200000000    0.7948409800000000 O
   0.2944045800000000    0.7179538000000001    0.9736994500000000 O
   0.2389850200000000    0.0657651100000000    0.9206000500000001 O
   0.9863759900000001    0.6394405100000000    0.6992348500000000 O
   0.5921632800000001    0.7775227000000001    0.9314346800000000 O
   0.6744480700000002    0.7998316200000002    0.4525776100000000 O
   0.8444093200000001    0.7311013100000001    0.3375714100000000 O
   0.8506974000000000    0.3122697400000001    0.0938467700000000 O
   0.0536948100000000    0.3484761700000000    0.3852641099999999 O
   0.0655839400000000    0.0172854000000000    0.3837150900000000 O
   0.6908313700000001    0.9242248100000001    0.0727731500000000 O
   0.1443048000000000    0.3204865300000001    0.5801893200000000 O
   0.1084976000000000    0.3597952800000001    0.0926407500000000 O
   0.9485843100000001    0.2154740000000001    0.9182015300000002 O
   0.9908028200000002    0.8197096800000001    0.5233782200000000 O
   0.4081960100000001    0.6378483700000001    0.1218402700000000 O
   0.5440047099999999    0.5395920800000001    0.9873603000000000 O
   0.2748808700000000    0.2154381800000000    0.7184730800000000 O
   0.8626842800000001    0.9536439800000001    0.8986222000000000 O
   0.7232198200000001    0.3514001600000000    0.4783801100000001 O
   0.3015574200000000    0.5956194299999999    0.5774632700000000 O
   0.2453873500000001    0.7563610300000001    0.4471619300000000 O
   0.4415983400000000    0.4340813500000000    0.1903558200000000 O
   0.0454119000000000    0.0292866200000000    0.0120772000000000 O
   0.6885554699999999    0.5770965100000000    0.4012078299999999 O
   0.2563743700000001    0.7710028600000001    0.2005481300000000 O
   0.2360987500000001    0.3693048500000001    0.2757757100000000 O
   0.1246426800000000    0.5363865100000001    0.4735859299999999 O
   0.5518550200000000    0.2587261400000000    0.7463665000000000 O
   0.2613492000000001    0.9754031500000001    0.3552486700000000 O
   0.8411203300000001    0.9625264600000001    0.4423850700000000 O
   0.1727319400000000    0.9913463100000001    0.1617003200000000 O
   0.6599994800000001    0.4098945500000000    0.2531008000000000 O
   0.8391535900000001    0.8246844300000001    0.7014171200000000 O
   0.9459079200000002    0.5025693100000000    0.8800430700000000 O
   0.8552498100000001    0.4663939500000001    0.3088976100000000 O
   0.2712654600000001    0.1650737300000001    0.2580281600000000 O
   0.0902192100000000    0.1716965500000000    0.2210912500000000 O
   0.6111281500000000    0.9961913200000001    0.5305278800000000 O
   0.8555776500000002    0.1926039400000000    0.5050204299999999 O
   0.7708605700000000    0.2643149400000000    0.6984093700000000 O
   0.4843589300000000    0.8363049200000001    0.1208835500000000 O
   0.6719566900000002    0.9771838900000002    0.3119662000000000 O
   0.2308929400000000    0.8746443900000000    0.7320862100000000 O
   0.1440088800000000    0.6741751000000000    0.8209199400000000 O
