Cr8
1.0
   4.5465390000000001    0.0000000000000000    0.0000000000000000
   0.0000000000000000    4.5465390000000001    0.0000000000000000
   0.0000000000000000    0.0000000000000000    4.5465390000000001
Cr
8
direct
   0.0000000000000000    0.0000000000000000    0.0000000000000000 Cr
   0.5000000000000000    0.5000000000000000    0.5000000000000000 Cr
   0.2500000000000000    0.0000000000000000    0.5000000000000000 Cr
   0.7500000000000000    0.0000000000000000    0.5000000000000000 Cr
   0.0000000000000000    0.5000000000000000    0.2500000000000000 Cr
   0.0000000000000000    0.5000000000000000    0.7500000000000000 Cr
   0.5000000000000000    0.7500000000000000    0.0000000000000000 Cr
   0.5000000000000000    0.2500000000000000    0.0000000000000000 Cr
