V5 Te8
1.0
   3.9429360000000000    6.2690729999999997    0.0000000000000000
  -3.9429360000000000    6.2690729999999997    0.0000000000000000
   0.0000000000000000    6.1403330000000000    6.5760889999999996
V Te
5 8
direct
   0.7116300000000000    0.2883700000000000    0.5000000000000000 V
   0.2883700000000000    0.7116300000000000    0.5000000000000000 V
   0.7174790000000000    0.7174790000000000    0.0490040000000000 V
   0.2825210000000001    0.2825210000000001    0.9509960000000000 V
   0.0000000000000000    0.0000000000000000    0.0000000000000000 V
   0.4286610000000000    0.4286610000000000    0.3457380000000000 Te
   0.5713390000000000    0.5713390000000000    0.6542620000000000 Te
   0.5391610000000000    0.0462870000000000    0.1663850000000000 Te
   0.4608389999999999    0.9537130000000000    0.8336150000000000 Te
   0.9537130000000000    0.4608389999999999    0.8336150000000000 Te
   0.0462870000000000    0.5391610000000000    0.1663850000000000 Te
   0.9867370000000000    0.9867370000000000    0.3204050000000000 Te
   0.0132630000000000    0.0132630000000000    0.6795949999999999 Te
