Gd3 Al1
1.0
   4.8043370000000003    0.0000000000000000    0.0000000000000000
   0.0000000000000000    4.8043370000000003    0.0000000000000000
   0.0000000000000000    0.0000000000000000    4.8043370000000003
Gd Al
3 1
direct
   0.0000000000000000    0.5000000000000000    0.5000000000000000 Gd
   0.5000000000000000    0.0000000000000000    0.5000000000000000 Gd
   0.5000000000000000    0.5000000000000000    0.0000000000000000 Gd
   0.0000000000000000    0.0000000000000000    0.0000000000000000 Al
