Ce3 Mg3
1.0
   1.5848819999999999    6.5242699999999996    0.0000000000000000
  -1.5848819999999999    6.5242699999999996    0.0000000000000000
   0.0000000000000000    1.8833299999999999    7.4175380000000004
Ce Mg
3 3
direct
   0.6661259999999999    0.6661259999999999    0.6551760000000000 Ce
   0.0788130000000000    0.0788130000000000    0.3920570000000000 Ce
   0.6993499999999999    0.6993499999999999    0.0703850000000000 Ce
   0.9842540000000000    0.9842540000000000    0.0010520000000000 Mg
   0.3900520000000000    0.3900520000000000    0.7212120000000000 Mg
   0.3480730000000000    0.3480730000000000    0.3267860000000000 Mg
