La2 Au4
1.0
  -2.3868320000000001    3.6858190000000000    4.1726549999999998
   2.3868320000000001   -3.6858190000000000    4.1726549999999998
   2.3868320000000001    3.6858190000000000   -4.1726549999999998
La Au
2 4
direct
   0.2158319999999999    0.4658320000000000    0.7500000000000000 La
   0.7841680000000000    0.5341680000000000    0.2500000000000000 La
   0.3742560000000000    0.8361040000000001    0.5381520000000000 Au
   0.6257440000000000    0.1638960000000000    0.4618480000000000 Au
   0.2020490000000000    0.1638960000000000    0.0381520000000000 Au
   0.7979509999999999    0.8361039999999998    0.9618479999999999 Au
