Zr6 N4
1.0
   5.5120420000000001   -2.8400569999999998    0.0000000000000000
   5.5120420000000001    2.8400569999999998    0.0000000000000000
   4.0487149999999996    0.0000000000000000    4.6964290000000002
Zr N
6 4
direct
   0.0753660000000001    0.4246340000000000    0.7500000000000000 Zr
   0.7500000000000000    0.0753660000000000    0.4246340000000001 Zr
   0.4246340000000001    0.7500000000000000    0.0753660000000000 Zr
   0.5753660000000000    0.2499999999999999    0.9246340000000001 Zr
   0.2500000000000002    0.9246340000000001    0.5753660000000000 Zr
   0.9246339999999998    0.5753659999999999    0.2500000000000000 Zr
   0.3387910000000001    0.3387910000000000    0.3387910000000001 N
   0.1612090000000000    0.1612090000000000    0.1612090000000000 N
   0.8387910000000001    0.8387909999999998    0.8387910000000000 N
   0.6612090000000000    0.6612089999999999    0.6612090000000002 N
