Si18 O36
1.0
  -3.6069650000000002    3.6069650000000002   21.1724040000000002
   3.6069650000000002   -3.6069650000000002   21.1724040000000002
   3.6069650000000002    3.6069650000000002  -21.1724040000000002
Si O
18 36
direct
   0.1890720000000000    0.4821259999999999    0.2930539999999999 Si
   0.2321260000000000    0.4390720000000001    0.7930540000000001 Si
   0.6460170000000000    0.4390720000000000    0.2069460000000000 Si
   0.5609280000000000    0.3539830000000000    0.7930540000000000 Si
   0.5609280000000001    0.7678740000000001    0.2069460000000000 Si
   0.1890720000000000    0.8960170000000000    0.7069460000000001 Si
   0.1039830000000001    0.8109280000000000    0.2930540000000000 Si
   0.5178739999999999    0.8109280000000000    0.7069460000000001 Si
   0.3061140000000000    0.0870670000000000    0.2190470000000000 Si
   0.8370670000000000    0.1180199999999999    0.2809530000000001 Si
   0.8370670000000000    0.5561140000000000    0.7190470000000000 Si
   0.4438860000000000    0.1629330000000000    0.2809530000000001 Si
   0.8819800000000000    0.1629330000000000    0.7190470000000000 Si
   0.8680199999999999    0.0870669999999999    0.7809529999999999 Si
   0.9129330000000002    0.1319800000000000    0.2190470000000000 Si
   0.9129330000000000    0.6938860000000000    0.7809530000000000 Si
   0.2500000000000001    0.7499999999999999    0.5000000000000000 Si
   0.5000000000000000    0.5000000000000000    0.0000000000000000 Si
   0.2275380000000000    0.5431770000000000    0.3156390000000001 O
   0.2931770000000000    0.4775379999999999    0.8156390000000000 O
   0.6618990000000001    0.4775380000000000    0.1843610000000000 O
   0.5224620000000000    0.3381009999999999    0.8156390000000000 O
   0.5224620000000001    0.7068230000000000    0.1843610000000000 O
   0.2275380000000000    0.9118990000000000    0.6843609999999999 O
   0.0881010000000000    0.7724620000000000    0.3156390000000000 O
   0.4568230000000000    0.7724620000000001    0.6843610000000001 O
   0.9920060000000001    0.3620959999999999    0.9978369999999999 O
   0.1120960000000000    0.6142590000000001    0.8700900000000000 O
   0.7441690000000000    0.2420060000000000    0.1299100000000000 O
   0.7579939999999999    0.2558310000000000    0.8700900000000000 O
   0.3857409999999999    0.8879040000000000    0.1299100000000000 O
   0.3642590000000000    0.9941690000000000    0.0021629999999999 O
   0.0058310000000000    0.6357410000000000    0.9978370000000000 O
   0.6379040000000000    0.0079939999999999    0.0021629999999999 O
   0.7579939999999998    0.8879039999999999    0.5021630000000000 O
   0.6379040000000000    0.6357410000000000    0.6299100000000000 O
   0.0058310000000000    0.0079940000000000    0.3700900000000000 O
   0.9920060000000002    0.9941690000000000    0.6299100000000000 O
   0.3642590000000001    0.3620960000000000    0.3700900000000000 O
   0.3857410000000001    0.2558310000000000    0.4978370000000000 O
   0.7441690000000000    0.6142590000000000    0.5021630000000000 O
   0.1120960000000000    0.2420060000000000    0.4978370000000000 O
   0.1733280000000000    0.6733280000000000    0.5000000000000000 O
   0.4233280000000000    0.4233280000000000    0.0000000000000000 O
   0.5766720000000000    0.5766720000000000    0.0000000000000000 O
   0.3266720000000001    0.8266720000000000    0.5000000000000000 O
   0.0787360000000000    0.0787360000000000    0.0000000000000000 O
   0.8287360000000000    0.3287360000000000    0.5000000000000000 O
   0.6712640000000000    0.1712640000000000    0.5000000000000000 O
   0.9212640000000000    0.9212640000000000    0.0000000000000000 O
   0.3749999999999999    0.1250000000000000    0.2500000000000000 O
   0.8750000000000001    0.1249999999999999    0.2500000000000001 O
   0.8750000000000000    0.6250000000000000    0.7500000000000000 O
   0.8750000000000000    0.1249999999999999    0.7499999999999999 O
