Fe32 O48
1.0
   9.2266139000000003    0.1567552500000000   -0.7212919900000000
   0.2040674200000000   10.2737431299999997    0.3360670700000000
  -0.7165094900000000    0.3024894300000000   10.8549504100000007
Fe O
32 48
direct
   0.4959223000000000    0.0302065700000000    0.8766257300000000 Fe
   0.1799350700000000    0.1292827800000000    0.9962429999999999 Fe
   0.5387636300000000    0.7436414400000000    0.8653655800000000 Fe
   0.0755665900000000    0.5998823100000000    0.5654828400000000 Fe
   0.0357817900000000    0.8821130300000000    0.0644932000000000 Fe
   0.8298929600000000    0.1939561700000001    0.9401014099999999 Fe
   0.2814474700000000    0.0716115600000000    0.5689209600000000 Fe
   0.6973505100000001    0.5506828099999999    0.6572709000000000 Fe
   0.9751389499999998    0.0652634400000000    0.7663517399999998 Fe
   0.7162678399999999    0.7631473500000000    0.4462147299999999 Fe
   0.7242836000000000    0.0323336600000000    0.3848221800000000 Fe
   0.6777987300000000    0.9710753799999999    0.6731959399999999 Fe
   0.3097591800000000    0.6278551600000000    0.0583403900000000 Fe
   0.1820428500000000    0.9473936400000000    0.3265641300000000 Fe
   0.0056939000000000    0.3620804499999999    0.1871917499999999 Fe
   0.0187064000000000    0.3851973899999999    0.7561549500000000 Fe
   0.9230422700000002    0.6774159199999999    0.2346787300000000 Fe
   0.8546997000000001    0.5434195700000000    0.9713917199999998 Fe
   0.3315659500000000    0.3238822299999999    0.2010275700000000 Fe
   0.3463943800000000    0.2717789800000000    0.7511301900000000 Fe
   0.4315137700000000    0.9199074999999999    0.1925923800000000 Fe
   0.8393764100000000    0.4737961500000000    0.4349969200000000 Fe
   0.3658068900000000    0.5495811300000001    0.7302884900000000 Fe
   0.5962158000000000    0.3943726100000000    0.9506046700000000 Fe
   0.5727127999999999    0.1780708500000000    0.1246012200000000 Fe
   0.7540211200000000    0.9435663399999998    0.1360395300000000 Fe
   0.0315416200000000    0.8930904800000000    0.5853725999999999 Fe
   0.4083848600000000    0.7583485900000000    0.5142517800000000 Fe
   0.1919356900000000    0.8008543100000000    0.8465529199999999 Fe
   0.1096211000000000    0.2927418900000001    0.4450612300000000 Fe
   0.6299997000000001    0.2433024000000000    0.6311654200000000 Fe
   0.5245751600000000    0.6250634799999999    0.2700678000000000 Fe
   0.3297895100000000    0.1565648400000000    0.8939666399999999 O
   0.2847878700000000    0.6057225300000000    0.5638643600000000 O
   0.9810809099999999    0.5441017300000000    0.1266953800000000 O
   0.5451317200000001    0.6414840500000000    0.4461003400000000 O
   0.4380482300000000    0.1558215400000000    0.2410613700000000 O
   0.2399600700000000    0.8893141700000001    0.5271992200000000 O
   0.8244143400000001    0.3580446200000000    0.0264927300000000 O
   0.9132802700000000    0.3355681200000000    0.3398500699999999 O
   0.8665181400000002    0.5007509999999999    0.7981640500000000 O
   0.5908647100000000    0.8648507700000001    0.5449652999999999 O
   0.6508476700000000    0.5806932700000000    0.9478831299999999 O
   0.8959814500000001    0.0404317400000000    0.0419169200000000 O
   0.3694090200000000    0.5188458000000001    0.2055859500000000 O
   0.1613692500000000    0.1119759000000000    0.4018414100000000 O
   0.4882178200000001    0.3552249300000000    0.0800605700000000 O
   0.1532920700000000    0.2809534300000000    0.0908299300000000 O
   0.0199331000000000    0.2259490000000000    0.8625095999999999 O
   0.1323928500000000    0.7267329699999999    0.0019315700000000 O
   0.2193064700000000    0.4239846099999999    0.7790525100000000 O
   0.8813747500000000    0.9179832099999999    0.6974324400000000 O
   0.7532686999999999    0.1120647800000000    0.2291370800000000 O
   0.4785160900000001    0.1081891400000000    0.6921589000000000 O
   0.6736139300000000    0.1168565300000000    0.5219966800000000 O
   0.3539210400000001    0.6342955400000000    0.8869474899999999 O
   0.8331993100000001    0.6308664000000002    0.5607882400000000 O
   0.8763564500000000    0.8956025699999998    0.4476718200000000 O
   0.0089058800000000    0.5965196999999998    0.3947612500000000 O
   0.6955052600000001    0.4003653000000000    0.5579862299999999 O
   0.3609671799999999    0.8424682899999999    0.3375296800000000 O
   0.7754708000000000    0.1534735800000000    0.7581058200000000 O
   0.1033017600000000    0.0617702800000000    0.6456352899999999 O
   0.0107402900000000    0.4086149299999999    0.5759839299999999 O
   0.7380971300000001    0.6051156900000000    0.2964577600000000 O
   0.6441106999999999    0.8833574700000000    0.2872912599999999 O
   0.0984769900000000    0.7344621199999999    0.6920511800000000 O
   0.6220062400000002    0.1982996700000000    0.9438455600000000 O
   0.4551961500000000    0.7447877299999999    0.1241290000000000 O
   0.2773652900000000    0.2640510500000000    0.5774179400000000 O
   0.5123801600000000    0.3921027600000000    0.7630128999999999 O
   0.1885136400000000    0.3693226600000000    0.3087506999999999 O
   0.6467528700000001    0.8995489100000000    0.8390093800000000 O
   0.0365150900000000    0.8399257800000000    0.2477102400000000 O
   0.3746607900000000    0.8798989900000000    0.8411148099999999 O
   0.2209354700000000    0.9892078100000000    0.1373769600000000 O
   0.8353848800000001    0.7854025700000000    0.0811290200000000 O
   0.5464890800000001    0.9945254400000000    0.0635594200000000 O
   0.0996502600000000    0.9662546299999999    0.9031822000000002 O
   0.5353753100000000    0.6616909000000001    0.7021531700000000 O
