As6 W2
1.0
   3.0309080000000002   -5.2496869999999998    0.0000000000000000
   3.0309080000000002    5.2496869999999998    0.0000000000000000
   0.0000000000000000    0.0000000000000000    4.6127859999999998
As W
6 2
direct
   0.1870710000000000    0.3741420000000000    0.2500000000000000 As
   0.6258580000000000    0.8129290000000000    0.2500000000000000 As
   0.1870710000000000    0.8129290000000000    0.2500000000000000 As
   0.8129290000000000    0.6258580000000000    0.7500000000000000 As
   0.3741420000000000    0.1870710000000000    0.7500000000000000 As
   0.8129290000000000    0.1870710000000000    0.7500000000000000 As
   0.3333330000000000    0.6666670000000000    0.7500000000000000 W
   0.6666670000000000    0.3333330000000000    0.2500000000000000 W
