Cr28 N56
1.0
   4.6310209999999996   13.6645889999999994    0.0000000000000000
  -4.6310209999999996   13.6645889999999994    0.0000000000000000
   0.0000000000000000    9.3426109999999998   15.9241609999999998
Cr N
28 56
direct
   0.4732600000000001    0.8426730000000000    0.6008720000000000 Cr
   0.8426730000000000    0.4732600000000001    0.6008720000000000 Cr
   0.5267400000000000    0.1573270000000000    0.3991280000000000 Cr
   0.1573270000000000    0.5267400000000000    0.3991280000000000 Cr
   0.5488600000000000    0.9225820000000000    0.2240340000000000 Cr
   0.9225820000000000    0.5488600000000000    0.2240340000000000 Cr
   0.4511399999999999    0.0774180000000000    0.7759660000000000 Cr
   0.0774180000000000    0.4511399999999999    0.7759660000000000 Cr
   0.9928380000000000    0.6207230000000000    0.9077740000000000 Cr
   0.6207230000000000    0.9928380000000000    0.9077740000000000 Cr
   0.0071620000000000    0.3792769999999999    0.0922260000000000 Cr
   0.3792769999999999    0.0071620000000000    0.0922260000000000 Cr
   0.9670310000000000    0.5967580000000000    0.5959050000000000 Cr
   0.5967580000000000    0.9670310000000000    0.5959050000000000 Cr
   0.0329690000000000    0.4032419999999999    0.4040950000000000 Cr
   0.4032419999999999    0.0329690000000000    0.4040950000000000 Cr
   0.2363559999999998    0.6077949999999999    0.9140989999999999 Cr
   0.6077949999999999    0.2363559999999998    0.9140989999999999 Cr
   0.7636439999999999    0.3922050000000000    0.0859010000000000 Cr
   0.3922050000000000    0.7636439999999999    0.0859010000000000 Cr
   0.1868390000000001    0.5605220000000000    0.1178110000000000 Cr
   0.5605220000000000    0.1868390000000001    0.1178110000000000 Cr
   0.8131609999999999    0.4394779999999999    0.8821889999999999 Cr
   0.4394779999999999    0.8131609999999999    0.8821889999999999 Cr
   0.2420660000000000    0.8699050000000000    0.7842780000000000 Cr
   0.8699050000000000    0.2420660000000000    0.7842780000000000 Cr
   0.7579339999999999    0.1300949999999999    0.2157220000000000 Cr
   0.1300949999999999    0.7579339999999999    0.2157220000000000 Cr
   0.7340810000000000    0.7340810000000000    0.2197940000000000 N
   0.2659190000000000    0.2659190000000000    0.7802060000000000 N
   0.8436260000000000    0.3346089999999999    0.8366410000000000 N
   0.3346089999999999    0.8436260000000000    0.8366410000000000 N
   0.1563740000000000    0.6653910000000000    0.1633590000000000 N
   0.6653910000000000    0.1563740000000000    0.1633590000000000 N
   0.8086879999999996    0.8086879999999996    0.9143440000000000 N
   0.1913120000000000    0.1913120000000000    0.0856560000000000 N
   0.8302389999999999    0.3558199999999999    0.9864479999999999 N
   0.3558199999999999    0.8302389999999999    0.9864479999999999 N
   0.1697609999999999    0.6441800000000000    0.0135520000000000 N
   0.6441800000000000    0.1697609999999999    0.0135520000000000 N
   0.5000000000000000   -0.0000000000000000    0.0000000000000000 N
  -0.0000000000000000    0.5000000000000000    0.0000000000000000 N
   0.4227719999999999    0.4227719999999999    0.9116679999999999 N
   0.5772280000000000    0.5772280000000000    0.0883320000000000 N
   0.5077159999999999    0.0636040000000000    0.3842360000000000 N
   0.0636040000000000    0.5077159999999999    0.3842360000000000 N
   0.4922839999999999    0.9363959999999999    0.6157639999999999 N
   0.9363959999999999    0.4922839999999999    0.6157639999999999 N
   0.0536460000000000    0.5339960000000000    0.6725740000000000 N
   0.5339960000000000    0.0536460000000000    0.6725740000000000 N
   0.9463540000000000    0.4660039999999998    0.3274260000000000 N
   0.4660039999999998    0.9463540000000000    0.3274260000000000 N
   0.2616200000000000    0.7648529999999999    0.1629650000000000 N
   0.7648529999999999    0.2616200000000000    0.1629650000000000 N
   0.7383799999999999    0.2351470000000000    0.8370349999999999 N
   0.2351470000000000    0.7383799999999999    0.8370349999999999 N
   0.5606800000000000    0.0501230000000000    0.1691280000000000 N
   0.0501230000000000    0.5606800000000000    0.1691280000000000 N
   0.4393199999999999    0.9498769999999999    0.8308720000000001 N
   0.9498769999999999    0.4393199999999999    0.8308720000000001 N
   0.9451410000000001    0.9451410000000001    0.2178940000000000 N
   0.0548590000000000    0.0548590000000000    0.7821060000000000 N
   0.3721440000000000    0.3721440000000000    0.1246600000000000 N
   0.6278560000000000    0.6278560000000000    0.8753400000000000 N
   0.1526350000000000    0.6573530000000000    0.3182250000000000 N
   0.6573530000000000    0.1526350000000000    0.3182250000000000 N
   0.8473650000000000    0.3426469999999999    0.6817749999999999 N
   0.3426469999999999    0.8473650000000000    0.6817749999999999 N
   0.4217830000000000    0.9238180000000000    0.5040340000000000 N
   0.9238180000000000    0.4217830000000000    0.5040340000000000 N
   0.5782169999999999    0.0761820000000000    0.4959660000000000 N
   0.0761820000000000    0.5782169999999999    0.4959660000000000 N
   0.7893669999999999    0.7893669999999999    0.5953190000000000 N
   0.2106330000000000    0.2106330000000000    0.4046810000000000 N
   0.4385360000000000    0.9645089999999998    0.1754140000000000 N
   0.9645089999999998    0.4385360000000000    0.1754140000000000 N
   0.5614640000000000    0.0354910000000000    0.8245860000000000 N
   0.0354910000000000    0.5614640000000000    0.8245860000000000 N
   0.6527870000000000    0.6527870000000000    0.5991570000000001 N
   0.3472129999999999    0.3472129999999999    0.4008430000000000 N
   0.1248020000000001    0.6127170000000000    0.8971020000000000 N
   0.6127170000000000    0.1248020000000001    0.8971020000000000 N
   0.8751980000000001    0.3872830000000001    0.1028980000000000 N
   0.3872830000000001    0.8751980000000001    0.1028980000000000 N
