V30 O75
1.0
  13.3099044600000003    0.4399169600000000    0.3113487200000000
   0.4260223100000000   12.4326746799999999   -0.0067347300000000
   0.3190926700000000   -0.0167240900000000   11.4835744200000001
V O
30 75
direct
   0.8938271700000002    0.0438349900000000    0.7659536300000001 V
   0.8981354300000001    0.7684847600000001    0.7722397200000000 V
   0.7181439900000000    0.4093586600000000    0.7205510300000001 V
   0.8169196300000001    0.0389115400000000    0.2754977200000000 V
   0.6721953900000002    0.0612314400000000    0.0320135400000000 V
   0.1514145400000000    0.7432488300000002    0.7384058599999999 V
   0.5806161000000001    0.6558170499999999    0.2613524200000000 V
   0.3580551300000001    0.0123005300000000    0.3594951800000001 V
   0.9593009100000000    0.2795933600000001    0.6319284800000000 V
   0.3473149400000001    0.7586446100000002    0.2541946700000000 V
   0.4148388700000001    0.1991060800000000    0.5372995400000000 V
   0.0434719100000000    0.6161327600000001    0.1455636400000000 V
   0.1297498600000001    0.9798388300000000    0.7566493399999999 V
   0.3542819700000001    0.0988594000000000    0.8183272100000000 V
   0.0733920000000000    0.2214508600000000    0.3481097800000000 V
   0.1448222400000000    0.9450083000000001    0.2602967500000000 V
   0.9703133000000000    0.8073928100000001    0.3598426900000000 V
   0.2775528400000001    0.1332668100000000    0.0883190900000000 V
   0.6718315700000002    0.6313220000000000    0.7679606000000000 V
   0.7765414000000003    0.3160509600000001    0.9952034500000001 V
   0.7508555100000001    0.3219847700000000    0.2576931900000001 V
   0.1907420900000000    0.8696132500000001    0.5435929600000000 V
   0.0348662500000000    0.5214116200000000    0.7037664000000000 V
   0.5709169900000000    0.1442758200000000    0.3479233000000000 V
   0.5806932600000000    0.1011776700000000    0.7511089900000000 V
   0.2272080800000000    0.5462020000000000    0.3396279000000000 V
   0.0070920500000000    0.4064026000000001    0.9754243500000001 V
   0.6231950100000000    0.7933633300000001    0.0243824300000000 V
   0.5916368500000000    0.5624861600000001    0.5321739300000000 V
   0.3236466000000001    0.2818122900000000    0.2897301800000000 V
   0.3090804400000001    0.4284692000000001    0.3230310100000001 O
   0.8947492800000002    0.9070214600000001    0.7173418000000001 O
   0.9928332000000002    0.4877866700000000    0.8497278099999999 O
   0.4766034800000001    0.7549654700000000    0.2934978600000000 O
   0.6484881500000002    0.4373186700000001    0.5894282900000000 O
   0.2772145100000001    0.0035601000000000    0.0562657500000000 O
   0.8421586100000003    0.1987465200000000    0.2453239200000000 O
   0.9857501200000002    0.4978048200000001    0.0979945800000000 O
   0.4425510900000001    0.1477573900000000    0.6991501200000000 O
   0.2271282900000000    0.0631733000000000    0.7795406300000000 O
   0.5042721100000002    0.8250249600000001    0.0452500000000000 O
   0.7979385800000001    0.0165672800000000    0.1344221000000000 O
   0.1459637000000000    0.5346364300000002    0.4475121699999999 O
   0.4721556100000001    0.5520551800000000    0.5231864500000000 O
   0.0189635600000000    0.3066620300000000    0.2610964500000000 O
   0.6073181600000001    0.5210835500000001    0.8011341799999999 O
   0.0216321000000000    0.0521207000000000    0.8179625800000000 O
   0.4380857600000000    0.2406393700000000    0.3629682200000000 O
   0.7537884100000002    0.4009549100000000    0.1200244200000000 O
   0.8109585700000003    0.0680929700000000    0.8755916799999999 O
   0.2895557500000000    0.6724324500000000    0.3577355200000000 O
   0.8204822400000001    0.3315366300000000    0.6701254200000000 O
   0.2834951700000001    0.8993005100000002    0.2561056400000001 O
   0.1574319000000000    0.5708773200000001    0.2114865300000000 O
   0.3393606000000001    0.2869528000000001    0.1463296200000000 O
   0.4224580200000000    0.9927426500000002    0.8548667000000000 O
   0.6126483300000001    0.6687567700000000    0.6354770199999999 O
   0.7014933100000000    0.0593580000000000    0.3456818600000000 O
   0.8836515300000000    0.9185379600000001    0.3324260900000000 O
   0.7780807000000000    0.3972181700000000    0.3640822700000000 O
   0.5583987300000000    0.1614024000000000    0.4967337400000000 O
   0.0378093700000000    0.2629294500000000    0.7339494600000002 O
   0.6400431500000001    0.6108773200000001    0.3932752900000001 O
   0.1545231700000000    0.4922717600000001    0.6906672400000000 O
   0.9707400100000002    0.7051517800000001    0.2494667500000000 O
   0.9751002700000001    0.4334149400000001    0.6140485700000000 O
   0.2365530100000000    0.8649474600000000    0.6913594500000001 O
   0.0213802200000000    0.2400553000000000    0.4944407100000000 O
   0.1972024800000000    0.2630482600000000    0.3561087299999999 O
   0.8878254300000001    0.7674310600000002    0.9130170500000000 O
   0.6229263000000002    0.9865757500000001    0.6918039300000000 O
   0.9089246100000000    0.3088291200000001    0.9685556800000001 O
   0.5929857400000000    0.0841787200000000    0.1468351600000000 O
   0.1200897300000000    0.3522459400000000    0.9704479200000001 O
   0.6428776600000001    0.7131109500000002    0.8920365500000000 O
   0.4857509800000001    0.0133077600000000    0.3439967100000000 O
   0.0757891500000000    0.9087557100000001    0.1576288200000000 O
   0.5351815900000001    0.5519637100000000    0.2050427100000000 O
   0.7934551300000001    0.7145667000000001    0.7243947700000001 O
   0.0973672300000000    0.8556311700000001    0.8310492700000000 O
   0.2969622800000001    0.9018761100000001    0.4666306900000000 O
   0.7370269500000001    0.1976178500000001    0.0459452300000000 O
   0.0984018900000000    0.8596199000000000    0.3852910000000000 O
   0.3372940000000001    0.7058806200000000    0.1283026500000000 O
   0.1582671400000001    0.1750612200000000    0.1029860600000000 O
   0.3354922000000001    0.1826692400000000    0.9379459500000001 O
   0.5999428700000001    0.0966868600000000    0.9137846600000000 O
   0.9046989700000002    0.1443013400000000    0.3290853900000000 O
   0.0770049500000000    0.6826888100000003    0.0316603600000000 O
   0.3159670100000000    0.1173844400000000    0.2529169400000000 O
   0.1631633700000000    0.7357644200000002    0.5703033199999999 O
   0.8976374700000002    0.1428837500000000    0.6582123600000001 O
   0.6366974900000001    0.2649830700000000    0.2892096300000000 O
   0.1063317200000000    0.0723395600000000    0.3152234900000000 O
   0.7101253800000001    0.3559003500000000    0.8758530000000000 O
   0.3544745000000001    0.3115807000000000    0.5750396100000000 O
   0.1020893700000000    0.9792587000000001    0.6026796900000000 O
   0.3312324000000000    0.1064575900000000    0.4931496600000000 O
   0.9332836900000002    0.7531354500000002    0.4804878100000001 O
   0.7836692500000001    0.5248315300000000    0.7401318499999999 O
   0.6511718300000001    0.1987255400000001    0.7049865199999999 O
   0.6848334000000001    0.9134874900000000    0.0078710900000000 O
   0.0205847400000000    0.6776208300000001    0.7254434099999999 O
   0.6610620100000001    0.7168120800000001    0.1529108500000000 O
   0.2309700300000000    0.6687739300000001    0.8068325900000000 O
