Mo2 Se4
1.0
   1.6634739999999999   -2.8812220000000002    0.0000000000000000
   1.6634739999999999    2.8812220000000002    0.0000000000000000
   0.0000000000000000    0.0000000000000000   25.4514229999999984
Mo Se
2 4
direct
   0.6666670000000000    0.3333330000000000    0.1517740000000000 Mo
   0.3333330000000000    0.6666670000000000    0.8482259999999999 Mo
   0.3333330000000000    0.6666670000000000    0.2174910000000000 Se
   0.6666670000000000    0.3333330000000000    0.9139439999999999 Se
   0.3333330000000000    0.6666670000000000    0.0860560000000000 Se
   0.6666670000000000    0.3333330000000000    0.7825089999999999 Se
