Ce3 Sn7
1.0
   2.2901090000000002  -12.6724440000000005    0.0000000000000000
   2.2901090000000002   12.6724440000000005    0.0000000000000000
   0.0000000000000000    0.0000000000000000    4.6445080000000001
Ce Sn
3 7
direct
   0.8147370000000000    0.1852629999999999    0.0000000000000000 Ce
   0.1852630000000000    0.8147369999999999    0.0000000000000000 Ce
   0.0000000000000000    0.0000000000000000    0.0000000000000000 Ce
   0.7084290000000000    0.2915710000000000    0.5000000000000000 Sn
   0.2915710000000000    0.7084289999999999    0.5000000000000000 Sn
   0.9040220000000000    0.0959780000000000    0.5000000000000000 Sn
   0.5000000000000000    0.4999999999999999    0.5000000000000000 Sn
   0.4049500000000000    0.5950500000000000    0.0000000000000000 Sn
   0.5950500000000000    0.4049500000000000    0.0000000000000000 Sn
   0.0959780000000000    0.9040219999999999    0.5000000000000000 Sn
