Si6
1.0
   2.5461870000000002   -4.4101260000000000    0.0000000000000000
   2.5461870000000002    4.4101260000000000    0.0000000000000000
   0.0000000000000000    0.0000000000000000    4.4190920000000000
Si
6
direct
   0.6700350000000000    0.8350170000000000    0.2500000000000000 Si
   0.8350170000000000    0.1649830000000000    0.7500000000000001 Si
   0.1649830000000000    0.3299650000000000    0.2500000000000000 Si
   0.8350170000000000    0.6700350000000000    0.7500000000000001 Si
   0.3299650000000000    0.1649830000000000    0.7500000000000001 Si
   0.1649830000000000    0.8350170000000000    0.2500000000000000 Si
