S28 N4
1.0
   8.1341160000000006    0.0000000000000000    0.0000000000000000
   0.0000000000000000    8.6553079999999998    0.0000000000000000
   0.0000000000000000    0.0000000000000000   13.8308409999999995
S N
28 4
direct
   0.2453150000000000    0.6801560000000000    0.1407680000000000 S
   0.2546850000000000    0.1801560000000000    0.3592319999999999 S
   0.7546850000000001    0.3198440000000000    0.6407680000000000 S
   0.7453149999999999    0.8198439999999999    0.8592319999999999 S
   0.7546850000000001    0.3198440000000000    0.8592319999999999 S
   0.7453149999999999    0.8198439999999999    0.6407680000000000 S
   0.2453150000000000    0.6801560000000000    0.3592319999999999 S
   0.2546850000000000    0.1801560000000000    0.1407680000000000 S
   0.0069880000000000    0.7244150000000000    0.0904510000000000 S
   0.4930120000000000    0.2244150000000000    0.4095490000000000 S
   0.9930120000000000    0.2755850000000000    0.5904509999999998 S
   0.5069880000000000    0.7755850000000000    0.9095490000000001 S
   0.9930120000000000    0.2755850000000000    0.9095490000000001 S
   0.5069880000000000    0.7755850000000000    0.5904509999999998 S
   0.0069880000000000    0.7244150000000000    0.4095490000000000 S
   0.4930120000000000    0.2244150000000000    0.0904510000000000 S
   0.8476500000000000    0.5493900000000000    0.1303130000000000 S
   0.6523500000000000    0.0493900000000000    0.3696870000000000 S
   0.1523500000000000    0.4506100000000000    0.6303129999999999 S
   0.3476500000000000    0.9506100000000000    0.8696870000000000 S
   0.1523500000000000    0.4506100000000000    0.8696870000000000 S
   0.3476500000000000    0.9506100000000000    0.6303129999999999 S
   0.8476500000000000    0.5493900000000000    0.3696870000000000 S
   0.6523500000000000    0.0493900000000000    0.1303130000000000 S
   0.7226440000000000    0.6258120000000000    0.2500000000000000 S
   0.7773560000000000    0.1258120000000000    0.2500000000000000 S
   0.2773560000000000    0.3741880000000000    0.7500000000000000 S
   0.2226440000000000    0.8741879999999999    0.7500000000000000 S
   0.2888520000000000    0.7296300000000000    0.2500000000000000 N
   0.2111480000000000    0.2296300000000000    0.2500000000000000 N
   0.7111480000000000    0.2703699999999999    0.7500000000000000 N
   0.7888520000000000    0.7703700000000000    0.7500000000000000 N
