Eu10 Ge6
1.0
  -3.9535459999999998    3.9535459999999998    7.5323880000000001
   3.9535459999999998   -3.9535459999999998    7.5323880000000001
   3.9535459999999998    3.9535459999999998   -7.5323880000000001
Eu Ge
10 6
direct
   0.5312440000000002    0.0312440000000000    0.8524850000000002 Eu
   0.1787590000000001    0.6787590000000001    0.1475150000000001 Eu
   0.0312440000000000    0.1787590000000000    0.5000000000000000 Eu
   0.6787590000000000    0.5312440000000002    0.5000000000000000 Eu
   0.4687560000000000    0.9687560000000000    0.1475150000000001 Eu
   0.8212410000000001    0.3212410000000000    0.8524850000000000 Eu
   0.9687560000000002    0.8212410000000001    0.5000000000000000 Eu
   0.3212410000000001    0.4687560000000001    0.5000000000000000 Eu
   0.5000000000000000    0.5000000000000000    0.0000000000000000 Eu
   0.0000000000000000    0.0000000000000000    0.0000000000000000 Eu
   0.8842640000000000    0.3842639999999999    0.2685280000000000 Ge
   0.1157360000000000    0.6157359999999998    0.7314720000000000 Ge
   0.3842639999999999    0.1157360000000000    0.5000000000000000 Ge
   0.6157360000000000    0.8842640000000000    0.5000000000000000 Ge
   0.2500000000000000    0.2500000000000000    0.0000000000000000 Ge
   0.7500000000000000    0.7500000000000000    0.0000000000000000 Ge
