Sb1 Pt3
1.0
   0.0000000000000000    3.2576380000000000    3.2576380000000000
   3.2576380000000000    0.0000000000000000    3.2576380000000000
   3.2576380000000000    3.2576380000000000    0.0000000000000000
Sb Pt
1 3
direct
   0.0000000000000000    0.0000000000000000    0.0000000000000000 Sb
   0.2500000000000000    0.2500000000000000    0.2500000000000000 Pt
   0.7500000000000000    0.7500000000000000    0.7500000000000000 Pt
   0.5000000000000000    0.5000000000000000    0.5000000000000000 Pt
