Tb2 Ga12
1.0
  14.5554980000000000    0.0000000000000000    0.0000000000000000
   0.0000000000000000   14.5554980000000000    0.0000000000000000
   0.0000000000000000    0.0000000000000000   18.1143929999999997
Tb Ga
2 12
direct
   0.5000000000000000    0.0000000000000000    0.0000000000000000 Tb
   0.0000000000000000    0.5000000000000000    0.0000000000000000 Tb
   0.8747080000000000    0.0000000000000000    0.3506980000000000 Ga
   0.1252920000000000    0.0000000000000000    0.3506980000000000 Ga
   0.0000000000000000    0.8747080000000000    0.3506980000000000 Ga
   0.0000000000000000    0.1252920000000000    0.6493020000000000 Ga
   0.1252920000000000    0.0000000000000000    0.6493020000000000 Ga
   0.0000000000000000    0.1252920000000000    0.3506980000000000 Ga
   0.0000000000000000    0.8747080000000000    0.6493020000000000 Ga
   0.8747080000000000    0.0000000000000000    0.6493020000000000 Ga
   0.0000000000000000    0.5000000000000000    0.1577680000000000 Ga
   0.5000000000000000    0.0000000000000000    0.1577680000000000 Ga
   0.5000000000000000    0.0000000000000000    0.8422320000000000 Ga
   0.0000000000000000    0.5000000000000000    0.8422320000000000 Ga
