Rb3 In1
1.0
   6.1890330000000002    0.0000000000000000    0.0000000000000000
   0.0000000000000000    6.1890330000000002    0.0000000000000000
   0.0000000000000000    0.0000000000000000    6.1890330000000002
Rb In
3 1
direct
   0.0000000000000000    0.5000000000000000    0.5000000000000000 Rb
   0.5000000000000000    0.0000000000000000    0.5000000000000000 Rb
   0.5000000000000000    0.5000000000000000    0.0000000000000000 Rb
   0.0000000000000000    0.0000000000000000    0.0000000000000000 In
