Mn2 Sb2
1.0
   2.0502650000000000   -3.5511640000000000    0.0000000000000000
   2.0502650000000000    3.5511640000000000    0.0000000000000000
   0.0000000000000000    0.0000000000000000    5.6121429999999997
Mn Sb
2 2
direct
   0.0000000000000000    0.0000000000000000    0.5000000000000000 Mn
   0.0000000000000000    0.0000000000000000    0.0000000000000000 Mn
   0.3333330000000000    0.6666670000000000    0.2500000000000000 Sb
   0.6666670000000000    0.3333330000000000    0.7500000000000000 Sb
