Na3 Mn1
1.0
  -2.3835750000000000    2.3835750000000000    5.1131909999999996
   2.3835750000000000   -2.3835750000000000    5.1131909999999996
   2.3835750000000000    2.3835750000000000   -5.1131909999999996
Na Mn
3 1
direct
   0.7500000000000000    0.2500000000000001    0.5000000000000001 Na
   0.2500000000000003    0.7500000000000000    0.5000000000000000 Na
   0.5000000000000001    0.5000000000000001    0.0000000000000000 Na
   0.0000000000000000    0.0000000000000000    0.0000000000000000 Mn
