Eu1 B6
1.0
   4.1704980000000003    0.0000000000000000    0.0000000000000000
   0.0000000000000000    4.1704980000000003    0.0000000000000000
   0.0000000000000000    0.0000000000000000    4.1704980000000003
Eu B
1 6
direct
   0.0000000000000000    0.0000000000000000    0.0000000000000000 Eu
   0.2014000000000000    0.5000000000000000    0.5000000000000000 B
   0.5000000000000000    0.5000000000000000    0.7986000000000000 B
   0.5000000000000000    0.2014000000000000    0.5000000000000000 B
   0.5000000000000000    0.5000000000000000    0.2014000000000000 B
   0.5000000000000000    0.7986000000000000    0.5000000000000000 B
   0.7986000000000000    0.5000000000000000    0.5000000000000000 B
