Y3 Ni9
1.0
   8.2507180000000009   -2.4839970000000000    0.0000000000000000
   8.2507180000000009    2.4839970000000000    0.0000000000000000
   7.5028750000000004    0.0000000000000000    4.2369159999999999
Y Ni
3 9
direct
   0.8613290000000000    0.8613290000000001    0.8613289999999999 Y
   0.1386710000000000    0.1386710000000000    0.1386710000000000 Y
   0.0000000000000000    0.0000000000000000    0.0000000000000000 Y
   0.4178820000000000    0.4178820000000001    0.9190550000000000 Ni
   0.9190549999999998    0.4178819999999999    0.4178820000000000 Ni
   0.5000000000000000    0.5000000000000000    0.5000000000000000 Ni
   0.5821180000000001    0.0809450000000002    0.5821180000000000 Ni
   0.5821180000000000    0.5821180000000000    0.0809450000000000 Ni
   0.3332430000000000    0.3332430000000001    0.3332430000000000 Ni
   0.4178819999999999    0.9190549999999998    0.4178820000000000 Ni
   0.6667570000000000    0.6667570000000002    0.6667570000000000 Ni
   0.0809450000000001    0.5821180000000002    0.5821180000000000 Ni
