W2 O10
1.0
   3.8881519999999998    0.0000000000000000    0.0000000000000000
   0.0000000000000000    6.1648730000000000    0.0000000000000000
   0.0000000000000000    0.0000000000000000    7.7197600000000000
W O
2 10
direct
   0.0004360000000000    0.0000000000000000    0.2500000000000000 W
   0.9995640000000000    0.0000000000000000    0.7500000000000000 W
   0.0000000000000000    0.0000000000000000    0.5000000000000000 O
   0.0000000000000000    0.0000000000000000    0.0000000000000000 O
   0.5000000000000000    0.5000000000000000    0.5000000000000000 O
   0.5000000000000000    0.5000000000000000    0.0000000000000000 O
   0.4823359999999999    0.0000000000000000    0.2500000000000000 O
   0.5176640000000000    0.0000000000000000    0.7500000000000000 O
   0.9194840000000000    0.3072770000000000    0.2500000000000000 O
   0.9194840000000000    0.6927230000000000    0.2500000000000000 O
   0.0805160000000000    0.6927230000000000    0.7500000000000000 O
   0.0805160000000000    0.3072770000000000    0.7500000000000000 O
