Tc6 B2
1.0
   1.4584480000000000   -4.6385459999999998    0.0000000000000000
   1.4584480000000000    4.6385459999999998    0.0000000000000000
   0.0000000000000000    0.0000000000000000    7.2613519999999996
Tc B
6 2
direct
   0.8649219999999999    0.1350780000000000    0.4375540000000000 Tc
   0.1350780000000000    0.8649219999999999    0.5624460000000000 Tc
   0.8649219999999999    0.1350780000000000    0.0624460000000000 Tc
   0.1350780000000000    0.8649219999999999    0.9375540000000000 Tc
   0.5755220000000000    0.4244780000000000    0.2500000000000000 Tc
   0.4244780000000000    0.5755220000000000    0.7500000000000000 Tc
   0.2561000000000000    0.7438999999999999    0.2500000000000000 B
   0.7438999999999999    0.2561000000000000    0.7500000000000000 B
