Ge3 O6
1.0
   2.4787650000000001   -4.2933469999999998    0.0000000000000000
   2.4787650000000001    4.2933469999999998    0.0000000000000000
   0.0000000000000000    0.0000000000000000    5.4044679999999996
Ge O
3 6
direct
   0.2198830000000000    0.2198830000000000    0.0000000000000000 Ge
  -0.0000000000000000    0.7801169999999999    0.6666670000000000 Ge
   0.7801169999999999   -0.0000000000000000    0.3333330000000000 Ge
   0.9600270000000002    0.3816070000000001    0.8056670000000000 O
   0.6183930000000000    0.5784200000000002    0.1390000000000000 O
   0.4215800000000001    0.0399730000000000    0.4723339999999999 O
   0.3816070000000001    0.9600270000000002    0.1943330000000000 O
   0.0399730000000000    0.4215800000000001    0.5276660000000000 O
   0.5784200000000002    0.6183930000000000    0.8610000000000000 O
