Pt2 O4
1.0
   4.4837829999999999    0.0000000000000000    0.0000000000000000
   0.0000000000000000    4.4837829999999999    0.0000000000000000
   0.0000000000000000    0.0000000000000000    4.4837829999999999
Pt O
2 4
direct
   0.0000000000000000    0.0000000000000000    0.0000000000000000 Pt
   0.5000000000000000    0.5000000000000000    0.5000000000000000 Pt
   0.7500000000000000    0.2500000000000000    0.2500000000000000 O
   0.2500000000000000    0.2500000000000000    0.7500000000000000 O
   0.7500000000000000    0.7500000000000000    0.7500000000000000 O
   0.2500000000000000    0.7500000000000000    0.2500000000000000 O
