Sm6 O9
1.0
   1.8150649999999999    7.1974549999999997    0.0000000000000000
  -1.8150649999999999    7.1974549999999997    0.0000000000000000
   0.0000000000000000    1.5876490000000001    8.7748390000000001
Sm O
6 9
direct
   0.9673540000000000    0.9673540000000003    0.8127940000000000 Sm
   0.0326460000000000    0.0326460000000000    0.1872060000000000 Sm
   0.6911679999999999    0.6911680000000001    0.8622700000000000 Sm
   0.3088320000000000    0.3088320000000001    0.1377300000000000 Sm
   0.6346680000000000    0.6346680000000000    0.5111980000000000 Sm
   0.3653320000000000    0.3653320000000000    0.4888020000000000 Sm
   0.4999999999999999    0.5000000000000000    0.0000000000000000 O
   0.4725210000000000    0.4725210000000000    0.6563360000000000 O
   0.5274789999999999    0.5274790000000000    0.3436640000000000 O
   0.7957019999999998    0.7957020000000000    0.6244280000000000 O
   0.2042980000000000    0.2042980000000001    0.3755720000000000 O
   0.8248639999999999    0.8248640000000002    0.9715520000000001 O
   0.8713789999999999    0.8713790000000001    0.2835480000000000 O
   0.1286210000000000    0.1286210000000000    0.7164520000000000 O
   0.1751360000000000    0.1751360000000000    0.0284480000000000 O
