Fe14 S16
1.0
   0.0017640000000000    5.7397640000000001   -0.0003220000000000
  -1.2404949999999999   -0.0007240000000000    6.0241179999999996
  10.6080930000000002    0.0030720000000000    3.5045470000000001
Fe S
14 16
direct
   0.9974040000000000    0.0265160000000000    0.0021370000000000 Fe
   0.5245820000000000    0.1342850000000000    0.1423600000000000 Fe
   0.4828939999999999    0.4769949999999999    0.9829909999999999 Fe
   0.9835649999999999    0.2720230000000000    0.2680560000000000 Fe
   0.0256770000000000    0.6165790000000000    0.1073760000000000 Fe
   0.4976849999999999    0.7237320000000000    0.2478340000000000 Fe
   0.0167630000000000    0.4776679999999999    0.4826300000000000 Fe
   0.9997099999999999    0.8745290000000000    0.3748370000000000 Fe
   0.5032830000000000    0.0257910000000000    0.5026790000000000 Fe
   0.4738250000000000    0.6154560000000000    0.6071270000000001 Fe
   0.0021440000000000    0.7240019999999999    0.7481069999999999 Fe
   0.9732549999999999    0.1346310000000000    0.6424740000000000 Fe
   0.5002489999999999    0.8749560000000001    0.8751159999999999 Fe
   0.5176130000000000    0.2728069999999999    0.7667399999999999 Fe
   0.8325410000000000    0.3207060000000000    0.0592340000000000 S
   0.3352760000000000    0.4294510000000000    0.1896330000000000 S
   0.6718840000000000    0.8063769999999999    0.0634540000000000 S
   0.8369089999999999    0.5858240000000000    0.3006870000000000 S
   0.1728690000000000    0.9432539999999999    0.1865100000000000 S
   0.3307229999999999    0.6948719999999999    0.4260530000000000 S
   0.6696549999999999    0.0566400000000000    0.3236200000000000 S
   0.8275099999999997    0.8067290000000003    0.5635260000000000 S
   0.1634180000000000    0.1637000000000000    0.4489950000000001 S
   0.3277830000000000    0.9421880000000000    0.6864990000000000 S
   0.6654529999999999    0.3211100000000000    0.5590200000000000 S
   0.8310249999999998    0.0552129999999998    0.8239890000000001 S
   0.1663790000000000    0.4294510000000000    0.6911800000000001 S
   0.3378149999999999    0.1652840000000000    0.9495740000000000 S
   0.6619949999999999    0.5857289999999999    0.8011420000000000 S
   0.1701170000000000    0.6935040000000000    0.9264220000000001 S
