Mg6 Si8
1.0
   4.7363640000000000    0.0000000000000000    0.0000000000000000
  -0.7166280000000000    7.1074169999999999    0.0000000000000000
  -0.2315220000000000   -2.5153550000000000    7.7497010000000000
Mg Si
6 8
direct
   0.1548240000000000    0.9371390000000001    0.5695740000000000 Mg
   0.6615620000000000    0.6133459999999999    0.5996810000000001 Mg
   0.6470190000000000    0.5967989999999999    0.9806640000000000 Mg
   0.2452920000000000    0.2228390000000000    0.9494340000000000 Mg
   0.7538760000000000    0.2903360000000000    0.2066560000000000 Mg
   0.1590030000000000    0.9186510000000000    0.1867470000000000 Mg
   0.1211080000000000    0.4523610000000000    0.7258280000000000 Si
   0.7296150000000001    0.2189290000000000    0.7750980000000001 Si
   0.6747890000000000    0.7915370000000000    0.3390660000000000 Si
   0.2945650000000000    0.5135590000000000    0.2557280000000000 Si
   0.2173990000000000    0.8042720000000000    0.8431640000000001 Si
   0.2206050000000000    0.2922930000000000    0.4326440000000000 Si
   0.6366210000000000    0.1367260000000000    0.4712630000000000 Si
   0.7370129999999999    0.9576610000000000    0.9110790000000001 Si
