V1 Pt3
1.0
   3.9247250000000000    0.0000000000000000    0.0000000000000000
   0.0000000000000000    3.9247250000000000    0.0000000000000000
   0.0000000000000000    0.0000000000000000    3.9247250000000000
V Pt
1 3
direct
   0.0000000000000000    0.0000000000000000    0.0000000000000000 V
   0.4999999999999999    0.4999999999999999    0.0000000000000000 Pt
   0.4999999999999999    0.0000000000000000    0.4999999999999999 Pt
   0.0000000000000000    0.4999999999999999    0.4999999999999999 Pt
