Sn6 As2
1.0
   3.2555960000000002   -5.6388579999999999    0.0000000000000000
   3.2555960000000002    5.6388579999999999    0.0000000000000000
   0.0000000000000000    0.0000000000000000    5.6200080000000003
Sn As
6 2
direct
   0.1683640000000000    0.3367270000000000    0.2500000000000000 Sn
   0.6632730000000000    0.8316360000000000    0.2500000000000000 Sn
   0.1683640000000000    0.8316360000000000    0.2500000000000000 Sn
   0.8316360000000000    0.6632730000000000    0.7500000000000000 Sn
   0.3367270000000000    0.1683640000000000    0.7500000000000000 Sn
   0.8316360000000000    0.1683640000000000    0.7500000000000000 Sn
   0.3333330000000000    0.6666670000000000    0.7500000000000000 As
   0.6666670000000000    0.3333330000000000    0.2500000000000000 As
