Sr8 Mg4
1.0
  13.8007897899999996    0.0000000000000000    0.0000000000000000
   0.0000000000000000    6.1003755599999998    0.0000000000000000
   0.0000000000000000    0.0000000000000000    6.0968188699999999
Sr Mg
8 4
direct
   0.1430339900000000    0.2467364000000000    0.7500000000000000 Sr
   0.3569660100000000    0.7467363999999999    0.7500000000000000 Sr
   0.1430339900000000    0.7532636000000000    0.2500000000000000 Sr
   0.3569660100000000    0.2532636000000000    0.2500000000000000 Sr
   0.6430339900000001    0.7467363999999999    0.7500000000000000 Sr
   0.8569660100000001    0.2467364000000000    0.7500000000000000 Sr
   0.6430339900000001    0.2532636000000000    0.2500000000000000 Sr
   0.8569660100000001    0.7532636000000000    0.2500000000000000 Sr
   0.0000000000000000    0.7348090399999999    0.7500000000000000 Mg
   0.0000000000000000    0.2651909600000000    0.2500000000000000 Mg
   0.5000000000000000    0.2348090400000000    0.7500000000000000 Mg
   0.5000000000000000    0.7651909600000001    0.2500000000000000 Mg
