Te4 O12
1.0
   5.1070039999999999    0.0000000000000000    0.0000000000000000
   0.0000000000000000    5.2733260000000000    0.0000000000000000
   0.0000000000000000    0.0000000000000000    7.3763230000000002
Te O
4 12
direct
   0.0000000000000000    0.0000000000000000    0.5000000000000000 Te
   0.5000000000000000    0.5000000000000000    0.5000000000000000 Te
   0.5000000000000000    0.5000000000000000    0.0000000000000000 Te
   0.0000000000000000    0.0000000000000000    0.0000000000000000 Te
   0.3769360000000000    0.5214780000000000    0.2500000000000000 O
   0.8769360000000002    0.9785219999999999    0.7500000000000000 O
   0.1230640000000000    0.0214780000000000    0.2500000000000000 O
   0.6230640000000000    0.4785220000000000    0.7500000000000000 O
   0.1839440000000000    0.3101459999999999    0.9401110000000000 O
   0.6839440000000000    0.1898540000000000    0.0598890000000000 O
   0.3160560000000000    0.8101460000000000    0.5598890000000000 O
   0.8160560000000000    0.6898540000000000    0.4401110000000000 O
   0.1839440000000000    0.3101459999999999    0.5598890000000000 O
   0.6839440000000000    0.1898540000000000    0.4401110000000000 O
   0.8160560000000000    0.6898540000000000    0.0598890000000000 O
   0.3160560000000000    0.8101460000000000    0.9401110000000000 O
