Cr4 O12
1.0
   4.5697869999999998    0.0000000000000000    0.0000000000000000
   0.0000000000000000    5.8516190000000003    0.0000000000000000
   0.0000000000000000    0.0000000000000000    9.5714640000000006
Cr O
4 12
direct
   0.9622590000000000    0.0404360000000000    0.2500000000000000 Cr
   0.4622590000000000    0.4595640000000000    0.7500000000000001 Cr
   0.5377409999999999    0.5404360000000000    0.2500000000000000 Cr
   0.0377410000000000    0.9595640000000001    0.7500000000000001 Cr
   0.1688240000000000    0.0557360000000000    0.1164070000000000 O
   0.1688240000000000    0.0557360000000000    0.3835930000000000 O
   0.7184810000000000    0.2716920000000000    0.2500000000000000 O
   0.2184810000000000    0.2283080000000000    0.7500000000000001 O
   0.6688240000000000    0.4442640000000000    0.6164070000000001 O
   0.6688240000000000    0.4442640000000000    0.8835930000000001 O
   0.3311760000000000    0.5557360000000001    0.1164070000000000 O
   0.3311760000000000    0.5557360000000001    0.3835930000000000 O
   0.7815190000000000    0.7716920000000000    0.2500000000000000 O
   0.2815190000000000    0.7283080000000000    0.7500000000000001 O
   0.8311760000000000    0.9442640000000001    0.8835930000000001 O
   0.8311760000000000    0.9442640000000001    0.6164070000000001 O
