Mg4 Si6
1.0
   1.9452849999999999    5.8591860000000002    0.0000000000000000
  -1.9452849999999999    5.8591860000000002    0.0000000000000000
   0.0000000000000000    3.5286179999999998    8.4521490000000004
Mg Si
4 6
direct
   0.6368869999999999    0.6368869999999999    0.0001340000000000 Mg
   0.3631130000000000    0.3631130000000000    0.9998660000000001 Mg
   0.6791450000000000    0.6791450000000000    0.6490270000000000 Mg
   0.3208550000000001    0.3208550000000001    0.3509730000000000 Mg
   0.3939650000000000    0.3939650000000000    0.5974800000000001 Si
   0.6060349999999999    0.6060349999999999    0.4025200000000000 Si
   0.8733660000000000    0.8733660000000000    0.7645830000000000 Si
   0.1266340000000000    0.1266340000000000    0.2354170000000000 Si
   0.0435160000000000    0.0435160000000000    0.8539180000000001 Si
   0.9564840000000000    0.9564840000000000    0.1460820000000000 Si
