Ni2 As4
1.0
   3.5997400000000002    0.0000000000000000    0.0000000000000000
   0.0000000000000000    4.7547309999999996    0.0000000000000000
   0.0000000000000000    0.0000000000000000    5.8277650000000003
Ni As
2 4
direct
   0.4999999999999999    0.5000000000000000    0.5000000000000000 Ni
   0.0000000000000000    0.0000000000000000    0.0000000000000000 Ni
   0.4999999999999999    0.7069690000000000    0.1313470000000000 As
   0.4999999999999999    0.2930310000000000    0.8686530000000000 As
   0.0000000000000000    0.7930310000000000    0.6313470000000000 As
   0.0000000000000000    0.2069690000000000    0.3686530000000001 As
