V8 O20
1.0
   5.9174249999999997    0.0000000000000000    0.0000000000000000
   0.0000000000000000    8.5319389999999995    0.0000000000000000
   0.0000000000000000    0.0000000000000000   10.1386540000000007
V O
8 20
direct
   0.2500000000000000    0.8416639999999999    0.9012579999999999 V
   0.7499999999999999    0.7021459999999999    0.7721050000000000 V
   0.2500000000000000    0.2021460000000000    0.7278949999999998 V
   0.7499999999999999    0.3416640000000000    0.5987420000000000 V
   0.2500000000000000    0.6583360000000000    0.4012579999999999 V
   0.7499999999999999    0.7978540000000000    0.2721050000000000 V
   0.2500000000000000    0.2978540000000000    0.2278950000000000 V
   0.7499999999999999    0.1583360000000000    0.0987420000000000 V
   0.7499999999999999    0.0989990000000000    0.9464600000000000 O
   0.2500000000000000    0.3291830000000000    0.8457859999999999 O
   0.5009950000000000    0.7285439999999999    0.8711679999999999 O
   0.9990050000000000    0.7285439999999999    0.8711679999999999 O
   0.2500000000000000    0.0050220000000000    0.7917120000000000 O
   0.7499999999999999    0.5050220000000000    0.7082879999999999 O
   0.0009950000000000    0.2285440000000000    0.6288319999999999 O
   0.4990050000000000    0.2285440000000000    0.6288319999999999 O
   0.7499999999999999    0.8291830000000000    0.6542140000000000 O
   0.2500000000000000    0.5989989999999998    0.5535400000000000 O
   0.7499999999999999    0.4010009999999999    0.4464600000000000 O
   0.2500000000000000    0.1708170000000000    0.3457860000000000 O
   0.9990050000000000    0.7714560000000000    0.3711679999999999 O
   0.5009950000000000    0.7714560000000000    0.3711679999999999 O
   0.2500000000000000    0.4949780000000000    0.2917120000000000 O
   0.7499999999999999    0.9949780000000000    0.2082880000000000 O
   0.0009950000000000    0.2714560000000000    0.1288320000000000 O
   0.4990050000000000    0.2714560000000000    0.1288320000000000 O
   0.7499999999999999    0.6708170000000000    0.1542140000000000 O
   0.2500000000000000    0.9010010000000001    0.0535400000000000 O
