Mo6 O20
1.0
   4.0886620000000002   -6.7390780000000001    0.0000000000000000
   4.0886620000000002    6.7390780000000001    0.0000000000000000
   0.0000000000000000    0.0000000000000000    7.3527319999999996
Mo O
6 20
direct
   0.9931500000000000    0.0068500000000000    0.5000000000000000 Mo
   0.4931500000000000    0.5068500000000000    0.0000000000000000 Mo
   0.2964130000000000    0.7869610000000000    0.7449519999999999 Mo
   0.2130390000000000    0.7035870000000000    0.2550480000000001 Mo
   0.7964130000000000    0.2869610000000000    0.7550480000000002 Mo
   0.7130390000000000    0.2035870000000000    0.2449520000000000 Mo
   0.1035270000000000    0.8538019999999999    0.3097570000000000 O
   0.1461980000000000    0.8964730000000000    0.6902430000000001 O
   0.6035270000000000    0.3538020000000000    0.1902430000000000 O
   0.6461980000000001    0.3964730000000001    0.8097570000000001 O
   0.8929190000000001    0.0822390000000001    0.6846550000000000 O
   0.9177610000000002    0.1070810000000001    0.3153450000000000 O
   0.3929190000000000    0.5822390000000000    0.8153450000000000 O
   0.4177610000000000    0.6070810000000000    0.1846550000000000 O
   0.0210210000000000    0.4882790000000000    0.7480020000000001 O
   0.5117210000000001    0.9789790000000000    0.2519980000000001 O
   0.5210210000000001    0.9882790000000000    0.7519980000000001 O
   0.0117210000000000    0.4789790000000000    0.2480020000000000 O
   0.2977090000000001    0.7022910000000000    0.5000000000000000 O
   0.7977089999999999    0.2022910000000001    0.0000000000000000 O
   0.7377490000000000    0.2622510000000000    0.5000000000000000 O
   0.2377490000000000    0.7622510000000000    0.0000000000000000 O
   0.2558740000000000    0.1690800000000000    0.5153489999999999 O
   0.8309200000000000    0.7441260000000000    0.4846510000000000 O
   0.7558740000000000    0.6690800000000000    0.9846510000000002 O
   0.3309200000000000    0.2441260000000000    0.0153490000000000 O
