Te8 Cl32
1.0
   5.4867600000000003    9.0004570000000008    0.0000000000000000
  -5.4867600000000003    9.0004570000000008    0.0000000000000000
   0.0000000000000000    7.3408150000000001   14.4615349999999996
Te Cl
8 32
direct
   0.8407790000000001    0.8860190000000000    0.3161930000000001 Te
   0.2600050000000000    0.7355880000000000    0.3865910000000000 Te
   0.2644120000000000    0.7399950000000000    0.1134090000000000 Te
   0.7355880000000000    0.2600049999999999    0.8865910000000000 Te
   0.8860190000000000    0.8407790000000001    0.8161929999999999 Te
   0.7399949999999998    0.2644119999999999    0.6134090000000001 Te
   0.1139810000000000    0.1592210000000000    0.1838070000000000 Te
   0.1592210000000001    0.1139810000000000    0.6838070000000001 Te
   0.9961389999999999    0.0065150000000000    0.1296840000000000 Cl
   0.8582450000000000    0.3676950000000000    0.4619860000000001 Cl
   0.3656620000000001    0.8887320000000000    0.6920370000000000 Cl
   0.2259220000000000    0.2431880000000000    0.2433610000000000 Cl
   0.3676950000000000    0.8582450000000003    0.9619860000000000 Cl
   0.9934850000000001    0.0038610000000000    0.3703160000000000 Cl
   0.4758359999999999    0.5212880000000000    0.3738200000000000 Cl
   0.0065150000000000    0.9961390000000000    0.6296840000000001 Cl
   0.7815169999999999    0.7448110000000000    0.9737980000000001 Cl
   0.1212940000000000    0.6343350000000000    0.3100050000000000 Cl
   0.5212880000000000    0.4758359999999999    0.8738200000000000 Cl
   0.7448109999999999    0.7815169999999999    0.4737980000000000 Cl
   0.3656650000000000    0.8787059999999999    0.1899950000000000 Cl
   0.0038610000000000    0.9934850000000000    0.8703160000000000 Cl
   0.6343349999999999    0.1212940000000000    0.8100050000000000 Cl
   0.8887320000000000    0.3656620000000000    0.1920370000000000 Cl
   0.8787059999999999    0.3656650000000000    0.6899950000000000 Cl
   0.3584089999999999    0.8500230000000000    0.4337290000000000 Cl
   0.8500230000000000    0.3584090000000000    0.9337290000000001 Cl
   0.2431880000000001    0.2259220000000001    0.7433610000000000 Cl
   0.2551890000000000    0.2184830000000000    0.5262019999999999 Cl
   0.1499770000000000    0.6415910000000000    0.0662710000000000 Cl
   0.6323050000000000    0.1417550000000000    0.0380140000000000 Cl
   0.1112680000000000    0.6343379999999998    0.8079630000000001 Cl
   0.6343380000000000    0.1112680000000000    0.3079630000000000 Cl
   0.1417550000000000    0.6323050000000000    0.5380140000000000 Cl
   0.5241640000000001    0.4787120000000001    0.6261800000000000 Cl
   0.7568119999999999    0.7740779999999999    0.2566390000000000 Cl
   0.4787120000000001    0.5241640000000001    0.1261800000000000 Cl
   0.7740780000000000    0.7568120000000000    0.7566390000000000 Cl
   0.2184830000000000    0.2551890000000000    0.0262020000000000 Cl
   0.6415909999999999    0.1499769999999999    0.5662710000000000 Cl
