Fe4 S8
1.0
   5.8211230000000000   -3.2570130000000002    0.0000000000000000
   5.8211230000000000    3.2570130000000002    0.0000000000000000
   3.9987710000000001    0.0000000000000000    5.3388609999999996
Fe S
4 8
direct
   0.0000000000000000    0.0000000000000000    0.0000000000000000 Fe
  -0.0000000000000000    0.5000000000000000    0.0000000000000000 Fe
   0.5000000000000000   -0.0000000000000000    0.0000000000000000 Fe
  -0.0000000000000000    0.0000000000000000    0.5000000000000000 Fe
   0.2439529999999999    0.2439530000000000    0.7686180000000000 S
   0.7686180000000000    0.2439530000000001    0.2439530000000000 S
   0.2437449999999999    0.2437450000000000    0.2437450000000000 S
   0.2439529999999999    0.7686180000000001    0.2439530000000000 S
   0.7560469999999998    0.2313819999999999    0.7560470000000000 S
   0.7562549999999999    0.7562550000000001    0.7562550000000000 S
   0.2313819999999998    0.7560470000000000    0.7560470000000000 S
   0.7560470000000001    0.7560470000000002    0.2313820000000000 S
