Li3 La1
1.0
   0.0000000000000000    3.7231740000000002    3.7231740000000002
   3.7231740000000002    0.0000000000000000    3.7231740000000002
   3.7231740000000002    3.7231740000000002    0.0000000000000000
Li La
3 1
direct
   0.2500000000000000    0.2500000000000000    0.2500000000000000 Li
   0.7500000000000000    0.7500000000000000    0.7500000000000000 Li
   0.5000000000000000    0.5000000000000000    0.5000000000000000 Li
   0.0000000000000000    0.0000000000000000    0.0000000000000000 La
