Cd16 I32
1.0
   2.1687490000000000   -3.7563830000000000    0.0000000000000000
   2.1687490000000000    3.7563830000000000    0.0000000000000000
   0.0000000000000000    0.0000000000000000  125.8069009999999963
Cd I
16 32
direct
   0.0000000000000000    0.0000000000000000    0.7656430000000000 Cd
   0.0000000000000000    0.0000000000000000    0.1405960000000000 Cd
   0.0000000000000000    0.0000000000000000    0.0156300000000000 Cd
   0.3333329999999999    0.6666670000000000    0.3281170000000000 Cd
   0.3333329999999999    0.6666670000000000    0.7031619999999998 Cd
   0.3333329999999999    0.6666670000000000    0.5781240000000000 Cd
   0.0000000000000000    0.0000000000000000    0.2656380000000000 Cd
   0.3333329999999999    0.6666670000000000    0.4530520000000000 Cd
   0.0000000000000000    0.0000000000000000    0.6405930000000000 Cd
   0.0000000000000000    0.0000000000000000    0.8281360000000000 Cd
   0.0000000000000000    0.0000000000000000    0.3906910000000000 Cd
   0.0000000000000000    0.0000000000000000    0.5156330000000000 Cd
   0.3333329999999999    0.6666670000000000    0.2031720000000000 Cd
   0.3333329999999999    0.6666670000000000    0.0781130000000000 Cd
   0.3333329999999999    0.6666670000000000    0.8906340000000000 Cd
   0.0000000000000000    0.0000000000000000    0.9531090000000000 Cd
   0.0000000000000000    0.0000000000000000    0.8769830000000000 I
   0.6666670000000000    0.3333330000000000    0.0292870000000000 I
   0.6666670000000000    0.3333330000000000    0.2792990000000000 I
   0.6666670000000000    0.3333330000000000    0.5292920000000000 I
   0.0000000000000000    0.0000000000000000    0.1894760000000000 I
   0.3333329999999999    0.6666670000000000    0.3770360000000000 I
   0.3333329999999999    0.6666670000000000    0.9394630000000000 I
   0.6666670000000000    0.3333330000000000    0.1542940000000000 I
   0.6666670000000000    0.3333330000000000    0.6542780000000000 I
   0.6666670000000000    0.3333330000000000    0.0917540000000000 I
   0.6666670000000000    0.3333330000000000    0.7168080000000000 I
   0.0000000000000000    0.0000000000000000    0.3143650000000000 I
   0.6666670000000000    0.3333330000000000    0.4667250000000000 I
   0.0000000000000000    0.0000000000000000    0.6894870000000000 I
   0.0000000000000000    0.0000000000000000    0.0644640000000000 I
   0.6666670000000000    0.3333330000000000    0.9042940000000000 I
   0.3333329999999999    0.6666670000000000    0.2519850000000000 I
   0.3333329999999999    0.6666670000000000    0.5019830000000000 I
   0.0000000000000000    0.0000000000000000    0.5644769999999999 I
   0.6666670000000000    0.3333330000000000    0.7793010000000000 I
   0.3333329999999999    0.6666670000000000    0.7519910000000000 I
   0.3333329999999999    0.6666670000000000    0.1269040000000000 I
   0.3333329999999999    0.6666670000000000    0.8144640000000000 I
   0.6666670000000000    0.3333330000000000    0.4043420000000000 I
   0.6666670000000000    0.3333330000000000    0.2168470000000000 I
   0.3333329999999999    0.6666670000000000    0.0019850000000000 I
   0.6666670000000000    0.3333330000000000    0.9667499999999999 I
   0.0000000000000000    0.0000000000000000    0.4393720000000000 I
   0.6666670000000000    0.3333330000000000    0.8418060000000001 I
   0.3333329999999999    0.6666670000000000    0.6269250000000000 I
   0.6666670000000000    0.3333330000000000    0.5917640000000000 I
   0.6666670000000000    0.3333330000000000    0.3418370000000000 I
