Er6 Fe23
1.0
   0.0000000000000000    5.9772990000000004    5.9772990000000004
   5.9772990000000004    0.0000000000000000    5.9772990000000004
   5.9772990000000004    5.9772990000000004    0.0000000000000000
Er Fe
6 23
direct
   0.7904620000000001    0.2095380000000000    0.7904620000000000 Er
   0.2095380000000001    0.2095380000000000    0.7904620000000000 Er
   0.7904620000000001    0.7904620000000000    0.2095379999999999 Er
   0.7904620000000000    0.2095380000000000    0.2095380000000001 Er
   0.2095380000000000    0.7904620000000001    0.7904620000000002 Er
   0.2095380000000001    0.7904620000000000    0.2095380000000000 Er
   0.8247700000000001    0.8247700000000001    0.8247700000000001 Fe
   0.4743100000000000    0.1752300000000000    0.1752300000000000 Fe
   0.1752300000000000    0.1752300000000000    0.4743100000000000 Fe
   0.1752300000000000    0.4743100000000000    0.1752300000000000 Fe
   0.8247700000000001    0.8247700000000001    0.5256900000000001 Fe
   0.8247700000000001    0.5256900000000001    0.8247700000000001 Fe
   0.5000000000000001    0.5000000000000000    0.4999999999999999 Fe
   0.0000000000000000    0.5000000000000000   -0.0000000000000000 Fe
   0.5000000000000000    0.0000000000000000   -0.0000000000000000 Fe
   0.0000000000000000    0.5000000000000000    0.5000000000000000 Fe
   0.5000000000000001   -0.0000000000000000    0.5000000000000000 Fe
   0.0000000000000000   -0.0000000000000000    0.5000000000000000 Fe
   0.5000000000000000    0.5000000000000000   -0.0000000000000000 Fe
   0.3785070000000000    0.3785070000000000    0.3785070000000000 Fe
   0.1355220000000001    0.6214930000000000    0.6214920000000000 Fe
   0.6214920000000000    0.1355220000000000    0.6214920000000000 Fe
   0.6214930000000001    0.6214930000000000    0.1355220000000000 Fe
   0.3785080000000001    0.8644780000000000    0.3785070000000000 Fe
   0.3785080000000002    0.3785070000000000    0.8644770000000001 Fe
   0.8644770000000001    0.3785080000000002    0.3785070000000000 Fe
   0.6214930000000001    0.6214930000000000    0.6214919999999999 Fe
   0.1752300000000000    0.1752300000000000    0.1752300000000000 Fe
   0.5256900000000001    0.8247700000000001    0.8247700000000001 Fe
