Eu6 Ge10
1.0
   8.9695490000000007  -12.2374620000000007    0.0000000000000000
   8.9695490000000007   12.2374620000000007    0.0000000000000000
   0.0000000000000000    0.0000000000000000   25.7961099999999988
Eu Ge
6 10
direct
   0.7960700000000001    0.2039299999999999    0.0000000000000000 Eu
   0.6551600000000000    0.6551599999999999    0.2500000000000000 Eu
   0.7960700000000001    0.2039299999999999    0.5000000000000000 Eu
   0.2039300000000000    0.7960699999999999    0.0000000000000000 Eu
   0.2039300000000000    0.7960699999999999    0.5000000000000000 Eu
   0.3448400000000000    0.3448400000000000    0.7500000000000001 Eu
   0.5124780000000000    0.9085119999999999    0.7500000000000001 Ge
   0.0914880000000000    0.4875220000000000    0.2500000000000000 Ge
   0.0442030000000000    0.0442030000000000    0.2500000000000000 Ge
   0.9085120000000000    0.5124779999999999    0.7500000000000001 Ge
   0.3076840000000000    0.3076840000000000    0.0539480000000000 Ge
   0.4875220000000000    0.0914879999999999    0.2500000000000000 Ge
   0.3076840000000000    0.3076840000000000    0.4460520000000000 Ge
   0.9557970000000001    0.9557969999999999    0.7500000000000001 Ge
   0.6923160000000000    0.6923159999999999    0.5539480000000001 Ge
   0.6923160000000000    0.6923159999999999    0.9460520000000001 Ge
