V7 S8
1.0
   3.1913090000000000   -5.5275100000000004    0.0000000000000000
   3.1913090000000000    5.5275100000000004    0.0000000000000000
   0.0000000000000000    0.0000000000000000    6.0496790000000003
V S
7 8
direct
   0.0000000000000000    0.0000000000000000    0.0000000000000000 V
   0.5000000000000000    0.0000000000000000    0.5000000000000000 V
   0.0000000000000000    0.5000000000000000    0.5000000000000000 V
   0.5000000000000000    0.5000000000000000    0.5000000000000000 V
   0.0000000000000000    0.5000000000000000    0.0000000000000000 V
   0.5000000000000000    0.5000000000000000    0.0000000000000000 V
   0.5000000000000000    0.0000000000000000    0.0000000000000000 V
   0.1641400000000000    0.3282810000000000    0.7469590000000002 S
   0.6717190000000002    0.8358600000000003    0.7469590000000002 S
   0.3282810000000000    0.1641400000000000    0.2530410000000000 S
   0.1641400000000001    0.8358600000000002    0.7469590000000002 S
   0.8358600000000003    0.6717190000000002    0.2530410000000000 S
   0.8358600000000002    0.1641400000000001    0.2530410000000000 S
   0.3333330000000000    0.6666670000000000    0.2491210000000000 S
   0.6666670000000000    0.3333330000000000    0.7508790000000000 S
