Zr16 Pt8
1.0
   0.0000000000000000    6.3147700000000002    6.3147700000000002
   6.3147700000000002    0.0000000000000000    6.3147700000000002
   6.3147700000000002    6.3147700000000002    0.0000000000000000
Zr Pt
16 8
direct
   0.1250000000000002    0.6250000000000000    0.6249999999999998 Zr
   0.6250000000000000    0.1250000000000002    0.6249999999999998 Zr
   0.6250000000000000    0.6250000000000000    0.1249999999999999 Zr
   0.6250000000000001    0.6250000000000000    0.6249999999999998 Zr
   0.8120730000000002    0.8120730000000002    0.1879269999999998 Zr
   0.1879270000000001    0.1879270000000000    0.8120729999999999 Zr
   0.8120730000000002    0.1879270000000001    0.8120729999999999 Zr
   0.1879270000000001    0.8120730000000000    0.1879269999999998 Zr
   0.1879270000000001    0.8120730000000002    0.8120729999999999 Zr
   0.8120730000000002    0.1879270000000000    0.1879270000000000 Zr
   0.4379270000000000    0.4379270000000000    0.0620729999999999 Zr
   0.0620730000000000    0.0620730000000000    0.4379270000000000 Zr
   0.4379270000000000    0.0620730000000001    0.4379270000000000 Zr
   0.0620730000000000    0.4379270000000000    0.0620730000000000 Zr
   0.0620730000000001    0.4379270000000000    0.4379270000000000 Zr
   0.4379270000000000    0.0620730000000000    0.0620730000000000 Zr
   0.7848060000000000    0.4050650000000001    0.4050650000000000 Pt
   0.4050650000000001    0.7848060000000000    0.4050649999999998 Pt
   0.4050650000000001    0.4050650000000001    0.7848059999999999 Pt
   0.4050650000000001    0.4050650000000001    0.4050650000000000 Pt
   0.4651940000000001    0.8449350000000001    0.8449349999999999 Pt
   0.8449350000000001    0.4651940000000001    0.8449349999999999 Pt
   0.8449350000000001    0.8449350000000001    0.4651939999999998 Pt
   0.8449350000000002    0.8449350000000001    0.8449349999999999 Pt
