C8
1.0
   2.1275719999999998   -4.3856039999999998    0.0000000000000000
   2.1275719999999998    4.3856039999999998    0.0000000000000000
   0.0000000000000000    0.0000000000000000    2.5146890000000002
C
8
direct
   0.6482120000000000    0.9814980000000000    0.0000000000000000 C
   0.3517880000000000    0.0185020000000000    0.0000000000000000 C
   0.0185020000000000    0.3517880000000000    0.0000000000000000 C
   0.9814980000000000    0.6482120000000000    0.0000000000000000 C
   0.4046840000000000    0.2263690000000000    0.5000000000000000 C
   0.5953160000000001    0.7736310000000001    0.5000000000000000 C
   0.7736310000000001    0.5953160000000001    0.5000000000000000 C
   0.2263690000000000    0.4046840000000000    0.5000000000000000 C
