Cr4 N8
1.0
   5.1684340000000004    0.0000000000000000    0.0000000000000000
  -1.6663619999999999    7.3268599999999999    0.0000000000000000
  -1.6469579999999999   -3.4972949999999998    6.5020319999999998
Cr N
4 8
direct
   0.5547959999999998    0.4716109999999999    0.8496650000000000 Cr
   0.1875050000000000    0.3713300000000000    0.4397790000000000 Cr
   0.1840599999999999    0.7141670000000000    0.8346749999999999 Cr
   0.5520480000000000    0.2273630000000000    0.1263390000000000 Cr
   0.6560749999999997    0.3530869999999999    0.9899639999999998 N
   0.1710069999999999    0.6150919999999999    0.5790719999999999 N
   0.3939349999999999    0.6374589999999999    0.9790959999999999 N
   0.3128819999999999    0.9825639999999999    0.9560919999999999 N
   0.3884600000000000    0.3627920000000000    0.2831159999999999 N
   0.8383959999999998    0.2154520000000000    0.2812430000000000 N
   0.3398379999999999    0.2806319999999999    0.5963780000000000 N
   0.8522079999999999    0.6236010000000000    0.8416400000000001 N
