Cr3 Te5
1.0
   1.9945379999999999   -3.4546410000000001    0.0000000000000000
   1.9945379999999999    3.4546410000000001    0.0000000000000000
   0.0000000000000000    0.0000000000000000   14.8258030000000005
Cr Te
3 5
direct
   0.0000000000000000    0.0000000000000000    0.5000000000000000 Cr
   0.0000000000000000    0.0000000000000000    0.2822250000000000 Cr
   0.0000000000000000    0.0000000000000000    0.7177750000000001 Cr
   0.3333329999999999    0.6666670000000000    0.8158660000000000 Te
   0.3333329999999999    0.6666670000000000    0.3925190000000000 Te
   0.6666670000000000    0.3333329999999999    0.1841340000000000 Te
   0.6666670000000000    0.3333329999999999    0.6074809999999999 Te
   0.0000000000000000    0.0000000000000000    0.0000000000000000 Te
