Ba2 Mg2
1.0
   4.3848240000000001    0.0000000000000000    0.0000000000000000
   0.0000000000000000    6.1850090000000000    0.0000000000000000
   0.0000000000000000    0.0000000000000000    6.1969839999999996
Ba Mg
2 2
direct
   0.0000000000000000    0.2436030000000000    0.2500000000000000 Ba
   0.0000000000000000    0.7563969999999999    0.7500000000000000 Ba
   0.5000000000000000    0.2581200000000000    0.7500000000000000 Mg
   0.5000000000000000    0.7418800000000000    0.2500000000000000 Mg
