Zr12 O24
1.0
   4.9571589999999999    0.0000000000000000    0.0000000000000000
   0.0000000000000000    5.9163370000000004    0.0000000000000000
   0.0000000000000000    0.0000000000000000   16.3167329999999993
Zr O
12 24
direct
   0.0024620000000000    0.3458490000000001    0.0840530000000000 Zr
   0.0000000000000000    0.0170650000000000    0.2500000000000000 Zr
   0.9975380000000000    0.3458490000000001    0.4159470000000000 Zr
   0.0000000000000000    0.9829350000000001    0.7500000000000000 Zr
   0.0024620000000000    0.6541510000000000    0.5840530000000000 Zr
   0.9975380000000000    0.6541510000000000    0.9159470000000000 Zr
   0.5024620000000000    0.1541510000000000    0.9159470000000000 Zr
   0.4975380000000000    0.1541510000000000    0.5840530000000000 Zr
   0.4999999999999999    0.4829350000000000    0.7500000000000000 Zr
   0.5024620000000000    0.8458490000000000    0.4159470000000000 Zr
   0.4975380000000000    0.8458490000000000    0.0840530000000000 Zr
   0.4999999999999999    0.5170650000000000    0.2500000000000000 Zr
   0.2027830000000000    0.6288049999999999    0.0302180000000000 O
   0.2027830000000000    0.3711950000000000    0.5302180000000000 O
   0.2808000000000000    0.1935100000000000    0.6959340000000001 O
   0.2808000000000000    0.8064900000000000    0.1959340000000000 O
   0.2092970000000000    0.0676010000000000    0.3626490000000000 O
   0.2092970000000000    0.9323990000000001    0.8626490000000001 O
   0.2907030000000000    0.5676010000000000    0.3626490000000000 O
   0.2907030000000000    0.4323990000000000    0.8626490000000001 O
   0.2192000000000000    0.3064900000000000    0.1959340000000000 O
   0.2192000000000000    0.6935100000000000    0.6959340000000001 O
   0.2972170000000000    0.1288050000000000    0.0302180000000000 O
   0.2972170000000000    0.8711950000000001    0.5302180000000000 O
   0.7027830000000000    0.1288050000000000    0.4697820000000000 O
   0.7027830000000000    0.8711950000000001    0.9697820000000000 O
   0.7807999999999999    0.3064900000000000    0.3040660000000000 O
   0.7807999999999999    0.6935100000000000    0.8040659999999999 O
   0.7092969999999998    0.4323990000000000    0.6373510000000000 O
   0.7092969999999998    0.5676010000000000    0.1373510000000000 O
   0.7907030000000000    0.0676010000000000    0.1373510000000000 O
   0.7907030000000000    0.9323990000000001    0.6373510000000000 O
   0.7192000000000000    0.1935100000000000    0.8040659999999999 O
   0.7192000000000000    0.8064900000000000    0.3040660000000000 O
   0.7972170000000000    0.3711950000000000    0.9697820000000000 O
   0.7972170000000000    0.6288049999999999    0.4697820000000000 O
