Na8 As8
1.0
   5.9603619999999999    0.0000000000000000    0.0000000000000000
   0.0000000000000000    6.3027230000000003    0.0000000000000000
   0.0000000000000000    5.2662370000000003   10.4145240000000001
Na As
8 8
direct
   0.3904330000000000    0.7810960000000000    0.3299910000000000 Na
   0.8904330000000000    0.2189040000000000    0.1700090000000000 Na
   0.6095670000000000    0.2189040000000000    0.6700090000000001 Na
   0.1095670000000000    0.7810959999999998    0.8299910000000001 Na
   0.6633740000000000    0.7652490000000000    0.0324050000000000 Na
   0.1633740000000000    0.2347510000000000    0.4675950000000000 Na
   0.3366260000000000    0.2347509999999999    0.9675950000000000 Na
   0.8366259999999999    0.7652489999999998    0.5324050000000000 Na
   0.8939980000000000    0.6796340000000000    0.2892880000000000 As
   0.3939980000000000    0.3203660000000000    0.2107120000000000 As
   0.1060020000000000    0.3203660000000000    0.7107120000000000 As
   0.6060020000000000    0.6796340000000000    0.7892880000000000 As
   0.1608520000000000    0.6870320000000000    0.1193490000000000 As
   0.6608520000000000    0.3129679999999999    0.3806510000000000 As
   0.8391479999999999    0.3129680000000000    0.8806510000000000 As
   0.3391480000000000    0.6870319999999999    0.6193490000000000 As
