In3 B1
1.0
   4.4437639999999998    0.0000000000000000    0.0000000000000000
   0.0000000000000000    4.4437639999999998    0.0000000000000000
   0.0000000000000000    0.0000000000000000    4.4437639999999998
In B
3 1
direct
   0.0000000000000000    0.5000000000000000    0.5000000000000000 In
   0.5000000000000000    0.0000000000000000    0.5000000000000000 In
   0.5000000000000000    0.5000000000000000    0.0000000000000000 In
   0.0000000000000000    0.0000000000000000    0.0000000000000000 B
