Ta22
1.0
  10.5165769999999998    0.0000000000000000    0.0000000000000000
   0.0000000000000000   10.5165769999999998    0.0000000000000000
   0.0000000000000000    0.0000000000000000    4.7662100000000001
Ta
22
direct
   0.5000000000000000    0.5000000000000000    0.5000000000000000 Ta
   0.0000000000000000    0.0000000000000000    0.0000000000000000 Ta
   0.7579930000000000    0.4321500000000000    0.5000000000000000 Ta
   0.2420070000000000    0.5678500000000000    0.5000000000000000 Ta
   0.9321500000000001    0.7420070000000000    0.0000000000000000 Ta
   0.0678500000000000    0.2579930000000000    0.0000000000000000 Ta
   0.4321500000000000    0.7579930000000000    0.5000000000000000 Ta
   0.5678500000000000    0.2420070000000000    0.5000000000000000 Ta
   0.2579930000000000    0.0678500000000000    0.0000000000000000 Ta
   0.7420070000000000    0.9321500000000001    0.0000000000000000 Ta
   0.0351510000000000    0.3777320000000000    0.5000000000000000 Ta
   0.9648490000000001    0.6222680000000002    0.5000000000000000 Ta
   0.8777320000000001    0.4648490000000000    0.0000000000000000 Ta
   0.1222680000000000    0.5351510000000000    0.0000000000000000 Ta
   0.3777320000000000    0.0351510000000000    0.5000000000000000 Ta
   0.6222680000000002    0.9648490000000001    0.5000000000000000 Ta
   0.5351510000000000    0.1222680000000000    0.0000000000000000 Ta
   0.4648490000000000    0.8777320000000001    0.0000000000000000 Ta
   0.1023600000000000    0.1023600000000000    0.5000000000000000 Ta
   0.8976400000000000    0.8976400000000000    0.5000000000000000 Ta
   0.6023600000000000    0.3976400000000000    0.0000000000000000 Ta
   0.3976400000000000    0.6023600000000000    0.0000000000000000 Ta
