Si8 O16
1.0
  -4.9828970000000004    4.9828970000000004    4.9828970000000004
   4.9828970000000004   -4.9828970000000004    4.9828970000000004
   4.9828970000000004    4.9828970000000004   -4.9828970000000004
Si O
8 16
direct
   0.3137680000000000    0.3137680000000000    0.3137680000000000 Si
  -0.0000000000000000    0.3137680000000000    0.0000000000000000 Si
   0.0000000000000000    0.0000000000000000    0.3137680000000000 Si
   0.3137680000000000   -0.0000000000000000   -0.0000000000000000 Si
   0.0000000000000000    0.0000000000000000    0.6862320000000000 Si
   0.6862320000000000   -0.0000000000000000   -0.0000000000000000 Si
  -0.0000000000000000    0.6862320000000000    0.0000000000000000 Si
   0.6862320000000000    0.6862320000000000    0.6862320000000000 Si
   0.5000000000000000    0.5000000000000000    0.5000000000000000 O
   0.0000000000000000    0.5000000000000000   -0.0000000000000000 O
  -0.0000000000000000   -0.0000000000000000    0.5000000000000000 O
   0.5000000000000000    0.0000000000000000    0.0000000000000000 O
   0.1891030000000000    0.1891030000000000    0.3782070000000000 O
   0.1891030000000000    0.3782070000000000    0.1891030000000000 O
   0.8108970000000000   -0.0000000000000000    0.1891030000000000 O
  -0.0000000000000000    0.8108970000000000    0.1891030000000000 O
   0.3782070000000000    0.1891030000000000    0.1891030000000000 O
   0.1891030000000000    0.8108970000000000    0.0000000000000000 O
   0.8108970000000000    0.1891030000000000   -0.0000000000000000 O
   0.1891030000000000    0.0000000000000000    0.8108970000000000 O
   0.6217930000000000    0.8108969999999999    0.8108969999999999 O
   0.8108969999999999    0.6217930000000000    0.8108969999999999 O
   0.0000000000000000    0.1891030000000000    0.8108970000000000 O
   0.8108969999999999    0.8108969999999999    0.6217930000000000 O
