Sm1 Bi3
1.0
  -2.3557190000000001    2.3557199999999998    5.5646220000000000
   2.3557190000000001   -2.3557199999999998    5.5646220000000000
   2.3557199999999998    2.3557199999999998   -5.5646220000000000
Sm Bi
1 3
direct
   0.0000000000000000    0.0000000000000000    0.0000000000000000 Sm
   0.7500000000000001    0.2500000000000001    0.5000000000000000 Bi
   0.2499999999999999    0.7499999999999999    0.4999999999999999 Bi
   0.5000000000000000    0.5000000000000000    0.0000000000000000 Bi
