K12 Ga52
1.0
   3.2626640000000000   -8.1876800000000003    0.0000000000000000
   3.2626640000000000    8.1876800000000003    0.0000000000000000
   0.0000000000000000    0.0000000000000000   28.9040549999999996
K Ga
12 52
direct
   0.7866400000000000    0.2133600000000000    0.0867310000000000 K
   0.0115540000000002    0.9884459999999999    0.1384080000000000 K
   0.6382949999999999    0.3617049999999999    0.1805900000000000 K
   0.0115540000000002    0.9884459999999999    0.3615920000000001 K
   0.7866400000000000    0.2133600000000000    0.4132690000000001 K
   0.9884460000000000    0.0115540000000000    0.6384080000000001 K
   0.6382949999999999    0.3617049999999999    0.3194100000000000 K
   0.9884460000000000    0.0115540000000000    0.8615920000000000 K
   0.3617050000000001    0.6382949999999998    0.6805900000000000 K
   0.3617050000000001    0.6382949999999998    0.8194100000000001 K
   0.2133600000000002    0.7866399999999999    0.5867310000000001 K
   0.2133600000000002    0.7866399999999999    0.9132690000000000 K
   0.1432140000000000    0.2443960000000000    0.0349440000000000 Ga
   0.2443960000000000    0.1432140000000000    0.5349440000000001 Ga
   0.1432140000000000    0.2443960000000000    0.4650560000000000 Ga
   0.2443960000000000    0.1432140000000000    0.9650560000000000 Ga
   0.0307290000000000    0.3702400000000000    0.2966460000000001 Ga
   0.0307290000000000    0.3702400000000000    0.2033540000000000 Ga
   0.3702400000000000    0.0307290000000000    0.7033540000000001 Ga
   0.3702400000000000    0.0307290000000000    0.7966460000000000 Ga
   0.2583040000000000    0.3165870000000001    0.2500000000000000 Ga
   0.3165870000000001    0.2583040000000000    0.7500000000000001 Ga
   0.4054550000000001    0.1872040000000000    0.0475260000000000 Ga
   0.4054550000000001    0.1872040000000000    0.4524740000000000 Ga
   0.1872040000000001    0.4054550000000000    0.5475260000000000 Ga
   0.1872040000000001    0.4054550000000000    0.9524740000000000 Ga
   0.4280580000000002    0.5719420000000000    0.1716310000000000 Ga
   0.3415250000000001    0.6584750000000000    0.0310950000000000 Ga
   0.2012840000000002    0.7987159999999999    0.0721570000000000 Ga
   0.4825820000000001    0.5174179999999999    0.0893540000000000 Ga
   0.6584750000000001    0.3415250000000000    0.5310950000000000 Ga
   0.2593330000000000    0.7406669999999999    0.1561290000000000 Ga
   0.3415250000000001    0.6584750000000000    0.4689050000000001 Ga
   0.2593330000000000    0.7406669999999999    0.3438710000000000 Ga
   0.4825820000000001    0.5174179999999999    0.4106460000000001 Ga
   0.5719420000000001    0.4280580000000000    0.6716310000000001 Ga
   0.2012840000000002    0.7987159999999999    0.4278430000000000 Ga
   0.5174180000000002    0.4825819999999999    0.5893540000000000 Ga
   0.0788220000000001    0.9211779999999999    0.2500000000000000 Ga
   0.7987160000000000    0.2012840000000000    0.5721570000000001 Ga
   0.7406670000000000    0.2593329999999999    0.6561290000000001 Ga
   0.9211780000000001    0.0788219999999999    0.7500000000000001 Ga
   0.4280580000000002    0.5719420000000000    0.3283690000000000 Ga
   0.7678830000000001    0.2321169999999999    0.7500000000000001 Ga
   0.5719420000000001    0.4280580000000000    0.8283690000000000 Ga
   0.7406670000000000    0.2593329999999999    0.8438710000000000 Ga
   0.2321170000000001    0.7678830000000000    0.2500000000000000 Ga
   0.7987160000000000    0.2012840000000000    0.9278430000000000 Ga
   0.6584750000000001    0.3415250000000000    0.9689050000000001 Ga
   0.5174180000000002    0.4825819999999999    0.9106460000000001 Ga
   0.8127960000000001    0.5945449999999999    0.0475260000000000 Ga
   0.5945450000000001    0.8127959999999999    0.5475260000000000 Ga
   0.8127960000000001    0.5945449999999999    0.4524740000000000 Ga
   0.5945450000000001    0.8127959999999999    0.9524740000000000 Ga
   0.6834130000000002    0.7416959999999999    0.2500000000000000 Ga
   0.7416960000000000    0.6834130000000000    0.7500000000000001 Ga
   0.6297600000000001    0.9692710000000000    0.2033540000000000 Ga
   0.6297600000000001    0.9692710000000000    0.2966460000000001 Ga
   0.9692710000000000    0.6297599999999999    0.7966460000000000 Ga
   0.9692710000000000    0.6297599999999999    0.7033540000000001 Ga
   0.7556040000000002    0.8567860000000002    0.0349440000000000 Ga
   0.8567860000000003    0.7556040000000001    0.5349440000000001 Ga
   0.7556040000000002    0.8567860000000002    0.4650560000000000 Ga
   0.8567860000000003    0.7556040000000001    0.9650560000000000 Ga
