Rh2 Br2
1.0
   1.7757650000000000   -3.0757150000000002    0.0000000000000000
   1.7757650000000000    3.0757150000000002    0.0000000000000000
   0.0000000000000000    0.0000000000000000    7.8397730000000001
Rh Br
2 2
direct
   0.6666670000000000    0.3333330000000001    0.8425939999999998 Rh
   0.3333330000000000    0.6666670000000001    0.3425940000000000 Rh
   0.6666670000000000    0.3333330000000001    0.5324050000000000 Br
   0.3333330000000000    0.6666670000000001    0.0324050000000000 Br
