K4 Tl8
1.0
   0.0000000000000000    6.2325949999999999    6.2325949999999999
   6.2325949999999999    0.0000000000000000    6.2325949999999999
   6.2325949999999999    6.2325949999999999    0.0000000000000000
K Tl
4 8
direct
   0.6250000000000000    0.6250000000000000    0.6250000000000000 K
   0.6250000000000000    0.6250000000000000    0.1250000000000000 K
   0.6250000000000000    0.1250000000000000    0.6250000000000000 K
   0.1250000000000000    0.6250000000000000    0.6250000000000000 K
   0.9066499999999998    0.9066500000000000    0.9066500000000000 Tl
   0.9066500000000000    0.9066499999999998    0.2800509999999999 Tl
   0.9066500000000000    0.2800509999999999    0.9066500000000000 Tl
   0.3433500000000000    0.3433500000000000    0.9699489999999997 Tl
   0.3433500000000000    0.3433500000000000    0.3433500000000000 Tl
   0.2800509999999999    0.9066500000000000    0.9066500000000000 Tl
   0.3433500000000000    0.9699489999999998    0.3433500000000000 Tl
   0.9699489999999998    0.3433500000000000    0.3433500000000000 Tl
