Tb4 Zn34
1.0
   4.4940429999999996   -7.7839109999999998    0.0000000000000000
   4.4940429999999996    7.7839109999999998    0.0000000000000000
   0.0000000000000000    0.0000000000000000    8.7921250000000004
Tb Zn
4 34
direct
   0.6666670000000000    0.3333329999999999    0.2500000000000000 Tb
   0.3333330000000000    0.6666669999999999    0.7500000000000000 Tb
   0.0000000000000000    0.0000000000000000    0.7500000000000000 Tb
   0.0000000000000000    0.0000000000000000    0.2500000000000000 Tb
   0.1616440000000000    0.8383559999999999    0.5208930000000001 Zn
   0.1616440000000000    0.3232880000000000    0.5208930000000001 Zn
   0.6767120000000000    0.8383559999999998    0.5208930000000001 Zn
   0.3232880000000000    0.1616440000000000    0.0208930000000000 Zn
   0.3333330000000000    0.6666669999999999    0.1014220000000000 Zn
   0.6666670000000000    0.3333329999999999    0.6014220000000000 Zn
   0.6666670000000000    0.3333329999999999    0.8985780000000000 Zn
   0.3333330000000000    0.6666669999999999    0.3985780000000000 Zn
   0.5000000000000000   -0.0000000000000000    0.0000000000000000 Zn
   0.5000000000000000    0.4999999999999999    0.5000000000000000 Zn
   0.0000000000000000    0.4999999999999999    0.5000000000000000 Zn
   0.0000000000000000    0.4999999999999999    0.0000000000000000 Zn
   0.5000000000000000    0.4999999999999999    0.0000000000000000 Zn
   0.5000000000000000   -0.0000000000000000    0.5000000000000000 Zn
   0.3288820000000001    0.9614719999999999    0.2500000000000000 Zn
   0.3674110000000000    0.3288820000000000    0.7500000000000000 Zn
   0.9614720000000000    0.6325889999999998    0.7500000000000000 Zn
   0.0385280000000000    0.3674109999999999    0.2500000000000000 Zn
   0.6325890000000000    0.6711179999999999    0.2500000000000000 Zn
   0.3674109999999999    0.0385280000000000    0.7500000000000000 Zn
   0.6711180000000000    0.6325889999999998    0.7500000000000000 Zn
   0.6711180000000000    0.0385280000000000    0.7500000000000000 Zn
   0.9614720000000000    0.3288820000000000    0.7500000000000000 Zn
   0.0385280000000001    0.6711179999999999    0.2500000000000000 Zn
   0.6325890000000000    0.9614719999999999    0.2500000000000000 Zn
   0.3288820000000001    0.3674109999999999    0.2500000000000000 Zn
   0.1616440000000000    0.3232880000000000    0.9791069999999998 Zn
   0.8383560000000000    0.1616440000000000    0.4791070000000000 Zn
   0.3232880000000000    0.1616440000000000    0.4791070000000000 Zn
   0.6767120000000000    0.8383559999999998    0.9791069999999998 Zn
   0.1616440000000000    0.8383559999999999    0.9791069999999998 Zn
   0.8383559999999999    0.6767119999999999    0.0208930000000000 Zn
   0.8383560000000000    0.1616440000000000    0.0208930000000000 Zn
   0.8383559999999999    0.6767119999999999    0.4791070000000000 Zn
