Be12 Co1
1.0
  -3.5868060000000002    3.5868060000000002    2.0450010000000001
   3.5868060000000002   -3.5868060000000002    2.0450010000000001
   3.5868060000000002    3.5868060000000002   -2.0450010000000001
Be Co
12 1
direct
  -0.0000000000000000    0.0000000000000000    0.5000000000000000 Be
   0.4999999999999999    0.5000000000000000    0.5000000000000000 Be
   0.5000000000000000   -0.0000000000000000   -0.0000000000000000 Be
  -0.0000000000000000    0.5000000000000000    0.0000000000000000 Be
  -0.0000000000000000    0.3453110000000000    0.3453110000000000 Be
  -0.0000000000000000    0.6546890000000000    0.6546890000000000 Be
   0.6546890000000000    0.0000000000000000    0.6546890000000000 Be
   0.3453110000000000    0.0000000000000000    0.3453110000000000 Be
   0.4999999999999999    0.2868880000000000    0.7868880000000000 Be
   0.5000000000000000    0.7131120000000000    0.2131120000000000 Be
   0.7131120000000000    0.5000000000000000    0.2131120000000000 Be
   0.2868880000000000    0.5000000000000000    0.7868880000000000 Be
   0.0000000000000000    0.0000000000000000    0.0000000000000000 Co
