W8 O24
1.0
   7.6020550000000000    0.0000000000000000    0.0000000000000000
   0.0000000000000000    7.7001039999999996    0.0000000000000000
   0.0000000000000000    0.0000000000000000    7.7471430000000003
W O
8 24
direct
   0.7509609999999999    0.0176600000000000    0.2336810000000000 W
   0.7490390000000000    0.0176600000000000    0.7336810000000000 W
   0.2490390000000000    0.9823399999999999    0.7663190000000000 W
   0.2490390000000000    0.4823400000000000    0.2336810000000000 W
   0.7509609999999999    0.5176600000000000    0.7663190000000000 W
   0.7490390000000000    0.5176600000000000    0.2663190000000000 W
   0.2509610000000000    0.9823399999999999    0.2663190000000000 W
   0.2509610000000000    0.4823400000000000    0.7336810000000000 W
   0.7207359999999999    0.7576200000000000    0.2529190000000000 O
   0.4996110000000000    0.0289210000000000    0.2746499999999999 O
   0.2792640000000000    0.2423800000000000    0.7470809999999999 O
   0.7792640000000000    0.2576200000000000    0.2470810000000000 O
   0.7247829999999998    0.0096870000000000    0.9962140000000000 O
   0.9996110000000000    0.9710789999999999    0.2253500000000000 O
   0.0003890000000000    0.0289210000000000    0.7746499999999999 O
   0.7792640000000000    0.7576200000000000    0.7529190000000000 O
   0.0003890000000000    0.5289210000000000    0.2253500000000000 O
   0.4996110000000000    0.5289210000000000    0.7253500000000001 O
   0.2247830000000000    0.9903129999999999    0.5037860000000000 O
   0.9996110000000000    0.4710790000000000    0.7746499999999999 O
   0.5003890000000000    0.9710789999999999    0.7253500000000001 O
   0.2247830000000000    0.4903129999999999    0.4962139999999999 O
   0.7207359999999999    0.2576200000000000    0.7470809999999999 O
   0.2752170000000000    0.4903129999999999    0.9962140000000000 O
   0.5003890000000000    0.4710790000000000    0.2746499999999999 O
   0.7247829999999998    0.5096870000000000    0.0037860000000000 O
   0.2207360000000000    0.7423800000000000    0.7529190000000000 O
   0.2752170000000000    0.9903129999999999    0.0037860000000000 O
   0.7752170000000000    0.0096870000000000    0.4962139999999999 O
   0.2792640000000000    0.7423800000000000    0.2529190000000000 O
   0.7752170000000000    0.5096870000000000    0.5037860000000000 O
   0.2207360000000000    0.2423800000000000    0.2470810000000000 O
