Ta2 S6
1.0
   3.2928560000000000   -3.7373099999999999    0.0000000000000000
   3.2928560000000000    3.7373099999999999    0.0000000000000000
   0.0000000000000000    0.0000000000000000    5.3423670000000003
Ta S
2 6
direct
   0.9974499999999999    0.9974499999999999    0.0000000000000000 Ta
   0.4974500000000000    0.4974500000000000    0.5000000000000000 Ta
   0.6186780000000000    0.6186780000000000    0.0000000000000000 S
   0.1186780000000000    0.1186780000000000    0.5000000000000000 S
   0.1216360000000000    0.5183370000000000    0.8246569999999999 S
   0.5183370000000000    0.1216360000000000    0.1753430000000000 S
   0.6216360000000000    0.0183370000000001    0.6753430000000000 S
   0.0183370000000001    0.6216360000000000    0.3246570000000000 S
