Dy2 Br6
1.0
   5.3545759999999998   -9.2743979999999997    0.0000000000000000
   5.3545759999999998    9.2743979999999997    0.0000000000000000
   0.0000000000000000    0.0000000000000000    3.7439350000000000
Dy Br
2 6
direct
   0.3333330000000000    0.6666670000000000    0.7500000000000000 Dy
   0.6666670000000000    0.3333330000000000    0.2500000000000000 Dy
   0.2190860000000001    0.4381720000000001    0.2500000000000000 Br
   0.5618280000000001    0.7809140000000000    0.2500000000000000 Br
   0.2190860000000001    0.7809140000000000    0.2500000000000000 Br
   0.7809140000000000    0.5618280000000001    0.7500000000000000 Br
   0.4381720000000001    0.2190860000000001    0.7500000000000000 Br
   0.7809140000000000    0.2190860000000001    0.7500000000000000 Br
