Ta10 Ge6
1.0
  -5.0870170000000003    5.0870170000000003    2.5989879999999999
   5.0870170000000003   -5.0870170000000003    2.5989879999999999
   5.0870170000000003    5.0870170000000003   -2.5989879999999999
Ta Ge
10 6
direct
   0.4256010000000000    0.7235409999999999    0.1491420000000000 Ta
   0.5743989999999999    0.2764589999999999    0.8508579999999999 Ta
   0.7235409999999999    0.5743990000000000    0.2979410000000000 Ta
   0.2764590000000000    0.4256009999999998    0.7020590000000000 Ta
   0.7764589999999998    0.0743989999999999    0.8508579999999999 Ta
   0.9256009999999999    0.7764589999999999    0.7020589999999999 Ta
   0.0743990000000000    0.2235410000000000    0.2979410000000000 Ta
   0.2235410000000000    0.9256009999999999    0.1491419999999999 Ta
   0.2499999999999999    0.7500000000000000    0.5000000000000001 Ta
   0.7500000000000001    0.2499999999999999    0.5000000000000000 Ta
   0.3329909999999999    0.1670089999999999    0.5000000000000000 Ge
   0.8329909999999999    0.3329910000000000    0.1659810000000000 Ge
   0.1670090000000000    0.6670089999999999    0.8340190000000000 Ge
   0.6670089999999999    0.8329909999999998    0.5000000000000000 Ge
   0.7499999999999999    0.7499999999999999    0.0000000000000000 Ge
   0.2500000000000000    0.2500000000000000    0.0000000000000000 Ge
