Sm6 Au2
1.0
   3.5140330000000000   -6.0864839999999996    0.0000000000000000
   3.5140330000000000    6.0864839999999996    0.0000000000000000
   0.0000000000000000    0.0000000000000000    5.2598640000000003
Sm Au
6 2
direct
   0.1772380000000000    0.3544750000000000    0.2500000000000000 Sm
   0.6455250000000000    0.8227620000000001    0.2500000000000000 Sm
   0.1772380000000000    0.8227620000000000    0.2500000000000000 Sm
   0.8227620000000001    0.6455250000000000    0.7500000000000000 Sm
   0.3544750000000000    0.1772380000000000    0.7500000000000000 Sm
   0.8227620000000000    0.1772380000000000    0.7500000000000000 Sm
   0.3333330000000001    0.6666670000000001    0.7500000000000000 Au
   0.6666670000000001    0.3333330000000001    0.2500000000000000 Au
