Fe2 O6
1.0
   1.4284920000000001    7.7347570000000001    0.0000000000000000
  -1.4284920000000001    7.7347570000000001    0.0000000000000000
   0.0000000000000000    2.1484510000000001    5.5633189999999999
Fe O
2 6
direct
   0.1874990000000000    0.1874990000000000    0.7182970000000000 Fe
   0.8125009999999999    0.8125009999999999    0.2817030000000000 Fe
   0.6787400000000000    0.6787400000000000    0.9233310000000000 O
   0.3252050000000000    0.3252050000000000    0.4850450000000000 O
   0.3212599999999999    0.3212599999999999    0.0766690000000000 O
   0.9816520000000000    0.9816520000000000    0.1105770000000000 O
   0.0183480000000000    0.0183480000000000    0.8894230000000001 O
   0.6747950000000000    0.6747950000000000    0.5149550000000001 O
