Pb6 N4
1.0
   3.6375839999999999    0.0000000000000000    0.0000000000000000
   0.0000000000000000    5.6241079999999997    0.0000000000000000
   0.0000000000000000    0.0000000000000000   11.9503930000000000
Pb N
6 4
direct
   0.5000000000000000    0.2767250000000000    0.8182100000000001 Pb
   0.5000000000000000    0.2767250000000000    0.1817900000000000 Pb
   0.0000000000000000    0.7232750000000000    0.6817900000000000 Pb
   0.0000000000000000    0.7232750000000000    0.3182100000000000 Pb
   0.5000000000000000    0.2272570000000000    0.5000000000000000 Pb
   0.0000000000000000    0.7727429999999998    0.0000000000000000 Pb
   0.5000000000000000    0.4764340000000000    0.3546860000000000 N
   0.5000000000000000    0.4764340000000000    0.6453140000000001 N
   0.0000000000000000    0.5235660000000000    0.1453140000000000 N
   0.0000000000000000    0.5235660000000000    0.8546859999999999 N
