Sr4 Pb6
1.0
   8.4184959999999993    0.0000000000000000    0.0000000000000000
   0.0000000000000000    8.4184959999999993    0.0000000000000000
   0.0000000000000000    0.0000000000000000    4.9997540000000003
Sr Pb
4 6
direct
   0.6730760000000000    0.1730760000000000    0.0000000000000000 Sr
   0.1730760000000000    0.3269240000000000    0.0000000000000000 Sr
   0.8269240000000000    0.6730760000000000    0.0000000000000000 Sr
   0.3269240000000000    0.8269240000000000    0.0000000000000000 Sr
   0.1289000000000000    0.6289000000000000    0.4999999999999999 Pb
   0.8711000000000000    0.3711000000000000    0.4999999999999999 Pb
   0.6289000000000000    0.8711000000000000    0.4999999999999999 Pb
   0.0000000000000000    0.0000000000000000    0.4999999999999999 Pb
   0.3711000000000000    0.1289000000000000    0.4999999999999999 Pb
   0.5000000000000000    0.5000000000000000    0.4999999999999999 Pb
