Ge3 As1
1.0
   0.0000000000000000    3.3881519999999998    3.3881519999999998
   3.3881519999999998    0.0000000000000000    3.3881519999999998
   3.3881519999999998    3.3881519999999998    0.0000000000000000
Ge As
3 1
direct
   0.2500000000000001    0.2500000000000000    0.2500000000000000 Ge
   0.7500000000000000    0.7500000000000001    0.7500000000000001 Ge
   0.5000000000000001    0.5000000000000000    0.4999999999999999 Ge
   0.0000000000000000    0.0000000000000000    0.0000000000000000 As
