Li8 Si8
1.0
  -4.6635790000000004    4.6635790000000004    2.8703550000000000
   4.6635790000000004   -4.6635790000000004    2.8703550000000000
   4.6635790000000004    4.6635790000000004   -2.8703550000000000
Li Si
8 8
direct
   0.4897020000000001    0.2061930000000000    0.5545520000000000 Li
   0.4561930000000000    0.4016400000000000    0.2164910000000000 Li
   0.1851490000000000    0.2397020000000000    0.7835090000000000 Li
   0.6516399999999999    0.9351489999999999    0.4454480000000000 Li
   0.7602980000000000    0.5438069999999999    0.9454480000000000 Li
   0.7938070000000000    0.3483600000000001    0.2835090000000000 Li
   0.0648510000000000    0.5102980000000000    0.7164910000000001 Li
   0.5983600000000001    0.8148510000000001    0.0545520000000000 Li
   0.9196970000000001    0.7330360000000000    0.5919780000000000 Si
   0.9830360000000001    0.8910580000000001    0.3133390000000000 Si
   0.5777190000000000    0.6696970000000000    0.6866610000000000 Si
   0.1410580000000000    0.3277190000000000    0.4080220000000000 Si
   0.3303030000000001    0.0169639999999999    0.9080220000000000 Si
   0.2669639999999999    0.8589419999999999    0.1866610000000000 Si
   0.6722810000000001    0.0803030000000001    0.8133390000000001 Si
   0.1089420000000000    0.4222810000000001    0.0919780000000000 Si
