Ca4 In4
1.0
  -3.7192390000000000    3.7192390000000000    4.1663399999999999
   3.7192390000000000   -3.7192390000000000    4.1663399999999999
   3.7192390000000000    3.7192390000000000   -4.1663399999999999
Ca In
4 4
direct
   0.7500000000000000    0.2500000000000000    0.5000000000000000 Ca
   0.2500000000000000    0.7500000000000000    0.5000000000000000 Ca
   0.7100600000000000    0.7100600000000000    0.0000000000000000 Ca
   0.2899400000000000    0.2899400000000000    0.0000000000000000 Ca
   0.7789150000000000    0.7789150000000000    0.5578299999999999 In
   0.7789150000000000    0.2210850000000001    0.0000000000000000 In
   0.2210850000000000    0.7789150000000000   -0.0000000000000000 In
   0.2210850000000000    0.2210850000000000    0.4421700000000000 In
