Sr6 P2
1.0
   3.7670610000000000   -6.5247400000000004    0.0000000000000000
   3.7670610000000000    6.5247400000000004    0.0000000000000000
   0.0000000000000000    0.0000000000000000    5.4804639999999996
Sr P
6 2
direct
   0.1793000000000000    0.3586009999999999    0.2500000000000000 Sr
   0.6413990000000001    0.8206999999999999    0.2500000000000000 Sr
   0.1793000000000000    0.8206999999999999    0.2500000000000000 Sr
   0.8207000000000000    0.6413989999999999    0.7500000000000001 Sr
   0.3586010000000000    0.1792999999999999    0.7500000000000001 Sr
   0.8207000000000000    0.1792999999999999    0.7500000000000001 Sr
   0.3333330000000000    0.6666669999999999    0.7500000000000001 P
   0.6666670000000000    0.3333329999999999    0.2500000000000000 P
