Cd5 I10
1.0
   2.1666720000000002   -3.7527860000000000    0.0000000000000000
   2.1666720000000002    3.7527860000000000    0.0000000000000000
   0.0000000000000000    0.0000000000000000   37.0175399999999968
Cd I
5 10
direct
   0.0000000000000000    0.0000000000000000    0.0500240000000000 Cd
   0.0000000000000000    0.0000000000000000    0.4499700000000000 Cd
   0.6666670000000000    0.3333330000000000    0.8500100000000000 Cd
   0.6666670000000000    0.3333330000000000    0.6500500000000000 Cd
   0.0000000000000000    0.0000000000000000    0.2499310000000000 Cd
   0.3333330000000000    0.6666670000000000    0.6034410000000000 I
   0.3333330000000000    0.6666670000000000    0.2032880000000000 I
   0.0000000000000000    0.0000000000000000    0.8966350000000000 I
   0.6666670000000000    0.3333330000000000    0.0966550000000000 I
   0.3333330000000000    0.6666670000000000    0.0034190000000000 I
   0.0000000000000000    0.0000000000000000    0.6966710000000000 I
   0.3333330000000000    0.6666670000000000    0.4033400000000000 I
   0.6666670000000000    0.3333330000000000    0.2965730000000000 I
   0.3333330000000000    0.6666670000000000    0.8033800000000001 I
   0.6666670000000000    0.3333330000000000    0.4966110000000001 I
