Mo2 Pt2
1.0
   2.7596970000000001    0.0000000000000000    0.0000000000000000
   0.0000000000000000    4.5060979999999997    0.0000000000000000
   0.0000000000000000    0.0000000000000000    4.9699840000000002
Mo Pt
2 2
direct
   0.0000000000000000    0.2500000000000000    0.1648040000000000 Mo
   0.0000000000000000    0.7500000000000000    0.8351960000000000 Mo
   0.5000000000000000    0.2500000000000000    0.6660059999999999 Pt
   0.5000000000000000    0.7500000000000000    0.3339940000000000 Pt
