Mg4 Ga2
1.0
   1.5589860000000000   -2.7002440000000001    0.0000000000000000
   1.5589860000000000    2.7002440000000001    0.0000000000000000
   0.0000000000000000    0.0000000000000000   14.9894320000000008
Mg Ga
4 2
direct
   0.3333330000000000    0.6666669999999999    0.0839140000000000 Mg
   0.6666670000000000    0.3333329999999999    0.2603390000000000 Mg
   0.3333330000000000    0.6666669999999999    0.7396610000000000 Mg
   0.6666670000000000    0.3333329999999999    0.9160860000000000 Mg
   0.3333330000000000    0.6666669999999999    0.4235130000000000 Ga
   0.6666670000000000    0.3333329999999999    0.5764870000000000 Ga
