Pm3 Tl1
1.0
   4.9679229999999999    0.0000000000000000    0.0000000000000000
   0.0000000000000000    4.9679229999999999    0.0000000000000000
   0.0000000000000000    0.0000000000000000    4.9679229999999999
Pm Tl
3 1
direct
   0.0000000000000000    0.5000000000000000    0.5000000000000000 Pm
   0.5000000000000000    0.0000000000000000    0.5000000000000000 Pm
   0.5000000000000000    0.5000000000000000    0.0000000000000000 Pm
   0.0000000000000000    0.0000000000000000    0.0000000000000000 Tl
