Be1 Ge3
1.0
  -1.9679430000000000    1.9679430000000000    4.3921599999999996
   1.9679430000000000   -1.9679430000000000    4.3921599999999996
   1.9679430000000000    1.9679430000000000   -4.3921599999999996
Be Ge
1 3
direct
   0.0000000000000000    0.0000000000000000    0.0000000000000000 Be
   0.7500000000000000    0.2500000000000001    0.4999999999999999 Ge
   0.2500000000000001    0.7500000000000001    0.4999999999999999 Ge
   0.5000000000000001    0.5000000000000001    0.0000000000000000 Ge
