Ge3 As4
1.0
   5.5132669999999999    0.0000000000000000    0.0000000000000000
   0.0000000000000000    5.5132669999999999    0.0000000000000000
   0.0000000000000000    0.0000000000000000    5.5132669999999999
Ge As
3 4
direct
   0.0000000000000000    0.0000000000000000    0.5000000000000000 Ge
   0.5000000000000000    0.0000000000000000    0.0000000000000000 Ge
   0.0000000000000000    0.5000000000000000    0.0000000000000000 Ge
   0.7180000000000000    0.7180000000000000    0.7180000000000000 As
   0.2820000000000000    0.2820000000000000    0.7180000000000000 As
   0.2820000000000000    0.7180000000000000    0.2820000000000000 As
   0.7180000000000000    0.2820000000000000    0.2820000000000000 As
