Zr3 S4
1.0
   3.6722480000000002   -5.1169900000000004    0.0000000000000000
   3.6722480000000002    5.1169900000000004    0.0000000000000000
   0.0000000000000000    0.0000000000000000    3.6919300000000002
Zr S
3 4
direct
   0.5000000000000000    0.0000000000000000    0.4999999999999999 Zr
   0.0000000000000000    0.5000000000000000    0.4999999999999999 Zr
   0.0000000000000000    0.0000000000000000    0.0000000000000000 Zr
   0.2556120000000000    0.2556120000000000    0.4999999999999999 S
   0.7443880000000002    0.7443880000000002    0.4999999999999999 S
   0.7387910000000000    0.2612090000000000    0.0000000000000000 S
   0.2612090000000000    0.7387910000000000    0.0000000000000000 S
