B16 H40
1.0
  10.3601790000000005    0.0000000000000000    0.0000000000000000
   0.0000000000000000    6.0015340000000004    0.0000000000000000
   0.0000000000000000    3.5254470000000002    8.6507149999999999
B H
16 40
direct
   0.9220140000000000    0.3941340000000000    0.2512880000000000 B
   0.4220140000000001    0.6058660000000000    0.2487120000000000 B
   0.0779860000000000    0.6058659999999999    0.7487120000000000 B
   0.5779860000000000    0.3941340000000000    0.7512880000000000 B
   0.7702720000000000    0.2503290000000000    0.2312000000000000 B
   0.2702720000000000    0.7496710000000000    0.2688000000000000 B
   0.2297280000000000    0.7496710000000000    0.7688000000000000 B
   0.7297280000000000    0.2503290000000001    0.7312000000000000 B
   0.7969910000000000    0.9487550000000000    0.3778160000000000 B
   0.2969910000000000    0.0512450000000000    0.1221840000000000 B
   0.2030090000000000    0.0512450000000000    0.6221840000000000 B
   0.7030090000000000    0.9487550000000002    0.8778160000000000 B
   0.9118890000000001    0.1077700000000000    0.2237390000000000 B
   0.4118890000000000    0.8922299999999999    0.2762610000000000 B
   0.0881110000000000    0.8922300000000001    0.7762610000000000 B
   0.5881110000000001    0.1077700000000001    0.7237390000000000 B
   0.0078880000000000    0.2061850000000001    0.2612590000000000 H
   0.5078880000000000    0.7938149999999999    0.2387410000000000 H
   0.9921120000000001    0.7938150000000000    0.7387410000000000 H
   0.4921120000000000    0.2061850000000000    0.7612590000000000 H
   0.9518080000000001    0.3961539999999999    0.3754120000000000 H
   0.4518080000000000    0.6038459999999999    0.1245880000000000 H
   0.0481920000000000    0.6038460000000001    0.6245880000000000 H
   0.5481920000000000    0.3961539999999999    0.8754120000000000 H
   0.9539240000000000    0.5613400000000000    0.1381800000000000 H
   0.4539240000000000    0.4386600000000000    0.3618200000000000 H
   0.0460760000000000    0.4386600000000000    0.8618200000000000 H
   0.5460760000000000    0.5613400000000000    0.6381800000000000 H
   0.7890820000000001    0.4283319999999999    0.2708930000000000 H
   0.2890820000000000    0.5716680000000000    0.2291070000000000 H
   0.2109180000000000    0.5716680000000000    0.7291069999999999 H
   0.7109180000000000    0.4283320000000001    0.7708930000000001 H
   0.5676450000000000    0.0752390000000000    0.6076810000000001 H
   0.0676450000000000    0.9247610000000001    0.8923190000000000 H
   0.4323550000000000    0.9247610000000001    0.3923190000000000 H
   0.9323550000000000    0.0752390000000000    0.1076810000000000 H
   0.5737260000000000    0.9146910000000000    0.8417120000000000 H
   0.0737260000000000    0.0853090000000001    0.6582880000000000 H
   0.4262740000000000    0.0853090000000000    0.1582880000000000 H
   0.9262740000000002    0.9146909999999998    0.3417120000000001 H
   0.7629980000000000    0.7919550000000000    0.8582230000000001 H
   0.2629980000000000    0.2080450000000001    0.6417770000000000 H
   0.2370020000000000    0.2080450000000000    0.1417770000000000 H
   0.7370020000000000    0.7919550000000000    0.3582230000000000 H
   0.6793180000000000    0.9251300000000000    0.0088470000000000 H
   0.1793180000000000    0.0748700000000000    0.4911530000000000 H
   0.3206820000000000    0.0748700000000001    0.9911530000000000 H
   0.8206820000000000    0.9251299999999998    0.5088470000000000 H
   0.7925300000000000    0.1372280000000000    0.8543450000000000 H
   0.2925300000000000    0.8627719999999999    0.6456550000000000 H
   0.2074700000000000    0.8627720000000000    0.1456550000000000 H
   0.7074700000000000    0.1372280000000000    0.3543450000000000 H
   0.7971080000000000    0.3038680000000001    0.6199900000000000 H
   0.2971080000000000    0.6961320000000001    0.8800100000000000 H
   0.2028920000000000    0.6961320000000000    0.3800100000000000 H
   0.7028920000000000    0.3038680000000000    0.1199900000000000 H
