Nb4 O10
1.0
   2.4908450000000002    6.4883400000000000    0.0000000000000000
  -2.4908450000000002    6.4883400000000000    0.0000000000000000
   0.0000000000000000    1.3641989999999999    5.5195569999999998
Nb O
4 10
direct
   0.6163649999999999    0.1011050000000001    0.2530220000000000 Nb
   0.8988949999999999    0.3836350000000001    0.2469780000000000 Nb
   0.3836349999999999    0.8988950000000000    0.7469780000000001 Nb
   0.1011050000000000    0.6163649999999999    0.7530220000000001 Nb
   0.2739920000000000    0.1366920000000000    0.3719840000000000 O
   0.8633069999999998    0.7260080000000000    0.1280160000000000 O
   0.7260080000000000    0.8633070000000000    0.6280160000000000 O
   0.1366920000000000    0.2739920000000000    0.8719840000000000 O
   0.1115319999999999    0.8884680000000001    0.7500000000000001 O
   0.8884680000000000    0.1115320000000001    0.2500000000000000 O
   0.6629930000000001    0.5600350000000001    0.5201860000000000 O
   0.4399649999999999    0.3370070000000000    0.9798140000000001 O
   0.3370070000000000    0.4399650000000001    0.4798140000000000 O
   0.5600349999999998    0.6629930000000001    0.0201860000000000 O
