Er2 Ga12
1.0
   5.9906829999999998    0.0000000000000000    0.0000000000000000
   0.0000000000000000    5.9906829999999998    0.0000000000000000
   0.0000000000000000    0.0000000000000000    7.5459420000000001
Er Ga
2 12
direct
   0.5000000000000000    0.0000000000000000    0.0000000000000000 Er
   0.0000000000000000    0.5000000000000000    0.0000000000000000 Er
   0.5000000000000000    0.5000000000000000    0.1605060000000000 Ga
   0.0000000000000000    0.0000000000000000    0.1605060000000000 Ga
   0.0000000000000000    0.0000000000000000    0.8394940000000000 Ga
   0.5000000000000000    0.5000000000000000    0.8394940000000000 Ga
   0.8095360000000001    0.6904640000000000    0.3479550000000000 Ga
   0.3095360000000000    0.8095360000000001    0.3479550000000000 Ga
   0.6904640000000000    0.1904640000000000    0.3479550000000000 Ga
   0.1904640000000000    0.3095360000000000    0.3479550000000000 Ga
   0.6904640000000000    0.8095360000000001    0.6520450000000000 Ga
   0.1904640000000000    0.6904640000000000    0.6520450000000000 Ga
   0.8095360000000001    0.3095360000000000    0.6520450000000000 Ga
   0.3095360000000000    0.1904640000000000    0.6520450000000000 Ga
