Li2 As6
1.0
   2.1056210000000002   -3.6470430000000000    0.0000000000000000
   2.1056210000000002    3.6470430000000000    0.0000000000000000
   0.0000000000000000    0.0000000000000000    9.7315710000000006
Li As
2 6
direct
   0.3333330000000000    0.6666669999999999    0.2500000000000000 Li
   0.6666670000000000    0.3333330000000000    0.7500000000000000 Li
   0.3333330000000000    0.6666669999999999    0.5718190000000000 As
   0.6666670000000000    0.3333330000000000    0.4281809999999999 As
   0.6666670000000000    0.3333330000000000    0.0718190000000000 As
   0.3333330000000000    0.6666669999999999    0.9281810000000001 As
   0.0000000000000000    0.0000000000000000    0.2500000000000000 As
   0.0000000000000000    0.0000000000000000    0.7500000000000000 As
