La6 Zn44
1.0
  -4.4975529999999999    4.4975529999999999   10.7075060000000004
   4.4975529999999999   -4.4975529999999999   10.7075060000000004
   4.4975529999999999    4.4975529999999999  -10.7075060000000004
La Zn
6 44
direct
   0.6201750000000000    0.6201750000000000    0.0000000000000000 La
   0.3701749999999999    0.8701749999999999    0.4999999999999999 La
   0.1298250000000001    0.6298250000000000    0.5000000000000000 La
   0.3798250000000000    0.3798250000000000    0.0000000000000000 La
   0.7500000000000000    0.2500000000000000    0.5000000000000000 La
   0.0000000000000000    0.0000000000000000    0.0000000000000000 La
   0.0704870000000000    0.5460530000000000    0.9891780000000000 Zn
   0.5568750000000000    0.5460530000000000    0.4755670000000000 Zn
   0.2960530000000000    0.3204870000000000    0.4891780000000000 Zn
   0.8313080000000002    0.3204870000000001    0.0244330000000000 Zn
   0.0704869999999999    0.0813080000000000    0.5244330000000000 Zn
   0.5568750000000000    0.0813080000000000    0.0108220000000000 Zn
   0.2960530000000000    0.8068750000000000    0.9755670000000000 Zn
   0.8313080000000002    0.8068750000000001    0.5108220000000000 Zn
   0.6795129999999999    0.7039469999999999    0.5108220000000000 Zn
   0.1931250000000000    0.7039469999999999    0.0244330000000000 Zn
   0.4539470000000000    0.9295130000000000    0.0108220000000001 Zn
   0.9186920000000000    0.9295130000000000    0.4755670000000000 Zn
   0.6795129999999999    0.1686920000000000    0.9755670000000000 Zn
   0.1931249999999999    0.1686920000000000    0.4891779999999999 Zn
   0.4539469999999999    0.4431250000000000    0.5244330000000000 Zn
   0.9186920000000000    0.4431250000000000    0.9891780000000001 Zn
   0.4981830000000000    0.2718800000000000    0.7736970000000000 Zn
   0.0218799999999999    0.7481830000000000    0.2736970000000000 Zn
   0.4744860000000000    0.7481829999999999    0.7263030000000000 Zn
   0.4981830000000000    0.7244860000000001    0.2263030000000000 Zn
   0.2518170000000000    0.9781200000000000    0.7263030000000000 Zn
   0.7281200000000001    0.5018170000000001    0.2263030000000000 Zn
   0.2755139999999999    0.5018170000000000    0.7736970000000000 Zn
   0.2518170000000001    0.5255140000000000    0.2736970000000000 Zn
   0.7583160000000000    0.6114030000000000    0.8530870000000000 Zn
   0.3614030000000000    0.0083160000000000    0.3530870000000000 Zn
   0.6552290000000000    0.0083160000000000    0.6469130000000000 Zn
   0.7583160000000000    0.9052290000000000    0.1469130000000000 Zn
   0.9916840000000001    0.6385970000000002    0.6469130000000000 Zn
   0.3885970000000001    0.2416840000000000    0.1469130000000000 Zn
   0.0947710000000000    0.2416840000000000    0.8530870000000000 Zn
   0.9916839999999999    0.3447710000000001    0.3530870000000000 Zn
   0.6116990000000000    0.9613880000000001    0.3496890000000001 Zn
   0.7113880000000000    0.8616990000000001    0.8496890000000000 Zn
   0.0120090000000000    0.8616990000000001    0.1503110000000001 Zn
   0.6116990000000000    0.2620089999999999    0.6503110000000000 Zn
   0.1383010000000000    0.2886120000000000    0.1503110000000000 Zn
   0.0386120000000000    0.3883010000000000    0.6503110000000000 Zn
   0.7379910000000000    0.3883010000000001    0.3496890000000001 Zn
   0.1383010000000000    0.9879909999999998    0.8496889999999999 Zn
   0.8750000000000000    0.6250000000000000    0.7500000000000000 Zn
   0.3750000000000000    0.1250000000000000    0.2500000000000000 Zn
   0.8750000000000000    0.1250000000000000    0.7500000000000000 Zn
   0.8750000000000000    0.1250000000000000    0.2500000000000000 Zn
