Co2 Se2
1.0
   1.8037129999999999   -3.1241219999999998    0.0000000000000000
   1.8037129999999999    3.1241219999999998    0.0000000000000000
   0.0000000000000000    0.0000000000000000    5.2074170000000004
Co Se
2 2
direct
   0.0000000000000000    0.0000000000000000    0.0000000000000000 Co
   0.0000000000000000    0.0000000000000000    0.5000000000000000 Co
   0.3333329999999999    0.6666670000000000    0.2500000000000000 Se
   0.6666670000000000    0.3333329999999999    0.7500000000000000 Se
