C12 N16
1.0
   3.5674869999999999   -6.1767089999999998    0.0000000000000000
   3.5674869999999999    6.1767089999999998    0.0000000000000000
   0.0000000000000000    0.0000000000000000    7.1376450000000000
C N
12 16
direct
   0.6789510000000000    0.6788490000000000    0.2500000000000000 C
   0.9946219999999999    0.6679809999999999    0.2500000000000000 C
   0.9945489999999999    0.0054509999999999    0.2500000000000000 C
   0.3206800000000000    0.6793200000000001    0.2500000000000000 C
   0.3320190000000000    0.0053780000000000    0.2500000000000000 C
   0.3211510000000000    0.3210490000000000    0.2500000000000000 C
   0.3210489999999999    0.3211510000000001    0.7500000000000000 C
   0.0053780000000000    0.3320190000000000    0.7500000000000000 C
   0.0054509999999999    0.9945490000000001    0.7500000000000000 C
   0.6793200000000000    0.3206800000000001    0.7500000000000000 C
   0.6679809999999999    0.9946220000000001    0.7500000000000000 C
   0.6788489999999999    0.6789510000000001    0.7500000000000000 C
   0.4402359999999999    0.5597640000000000    0.2500000000000000 N
   0.7790270000000000    0.8950920000000000    0.2500000000000000 N
   0.7788800000000000    0.5633450000000001    0.2500000000000000 N
   0.1070569999999999    0.8929430000000002    0.2500000000000000 N
   0.1051690000000000    0.5635010000000001    0.2500000000000000 N
   0.4364990000000000    0.8948310000000003    0.2500000000000000 N
   0.4366550000000000    0.2211200000000000    0.2500000000000000 N
   0.1049080000000000    0.2209730000000000    0.2500000000000000 N
   0.5597639999999999    0.4402360000000000    0.7500000000000000 N
   0.2209730000000000    0.1049080000000000    0.7500000000000000 N
   0.2211200000000000    0.4366550000000001    0.7500000000000000 N
   0.8929429999999999    0.1070569999999999    0.7500000000000000 N
   0.8948309999999999    0.4364990000000001    0.7500000000000000 N
   0.5635010000000000    0.1051690000000000    0.7500000000000000 N
   0.5633450000000000    0.7788800000000001    0.7500000000000000 N
   0.8950919999999999    0.7790270000000001    0.7500000000000000 N
