Nd4 Ge18
1.0
   4.0426130000000002    0.0000000000000000    0.0000000000000000
   0.0000000000000000    9.6097929999999998    0.0000000000000000
   0.0000000000000000    0.0000000000000000   12.4873040000000000
Nd Ge
4 18
direct
   0.5000000000000000    0.5000000000000000    0.8708210000000000 Nd
   0.0000000000000000    0.0000000000000000    0.1291790000000000 Nd
   0.5000000000000000    0.5000000000000000    0.3821059999999999 Nd
   0.0000000000000000    0.0000000000000000    0.6178939999999999 Nd
   0.5000000000000000    0.8113669999999998    0.2667050000000000 Ge
   0.5000000000000000    0.1886330000000000    0.2667050000000000 Ge
   0.0000000000000000    0.6886330000000001    0.7332950000000000 Ge
   0.0000000000000000    0.3113670000000000    0.7332950000000000 Ge
   0.5000000000000000    0.8457309999999999    0.7820810000000000 Ge
   0.5000000000000000    0.1542690000000000    0.7820810000000000 Ge
   0.0000000000000000    0.6542690000000000    0.2179190000000000 Ge
   0.0000000000000000    0.3457310000000000    0.2179190000000000 Ge
   0.5000000000000000    0.8315790000000000    0.4717499999999999 Ge
   0.5000000000000000    0.1684210000000000    0.4717499999999999 Ge
   0.0000000000000000    0.6684209999999999    0.5282500000000000 Ge
   0.0000000000000000    0.3315790000000000    0.5282500000000000 Ge
   0.5000000000000000    0.8278400000000000    0.9812949999999999 Ge
   0.5000000000000000    0.1721600000000000    0.9812949999999999 Ge
   0.0000000000000000    0.6721600000000000    0.0187050000000000 Ge
   0.0000000000000000    0.3278400000000000    0.0187050000000000 Ge
   0.5000000000000000    0.5000000000000000    0.6274970000000000 Ge
   0.0000000000000000    0.0000000000000000    0.3725030000000000 Ge
