K8 Bi2
1.0
   0.0000000000000000    7.1833440000000000    7.1833440000000000
   7.1833440000000000    0.0000000000000000    7.1833440000000000
   7.1833440000000000    7.1833440000000000    0.0000000000000000
K Bi
8 2
direct
   0.3831020000000000    0.3831020000000000    0.3831020000000000 K
   0.3831020000000000    0.3831020000000000    0.8506939999999998 K
   0.3831020000000000    0.8506940000000000    0.3831020000000001 K
   0.8668979999999998    0.8668979999999999    0.3993060000000002 K
   0.8668979999999999    0.8668979999999999    0.8668979999999999 K
   0.8506940000000000    0.3831020000000000    0.3831020000000001 K
   0.8668979999999998    0.3993060000000002    0.8668979999999999 K
   0.3993060000000000    0.8668979999999999    0.8668979999999999 K
   0.0000000000000000    0.0000000000000000    0.0000000000000000 Bi
   0.2500000000000000    0.2500000000000000    0.2500000000000000 Bi
