Yb6 Er2
1.0
   3.7412200000000002   -6.4799829999999998    0.0000000000000000
   3.7412200000000002    6.4799829999999998    0.0000000000000000
   0.0000000000000000    0.0000000000000000    6.0454759999999998
Yb Er
6 2
direct
   0.1706739999999999    0.3413480000000000    0.2500000000000000 Yb
   0.6586520000000000    0.8293260000000001    0.2500000000000000 Yb
   0.1706739999999999    0.8293260000000000    0.2500000000000000 Yb
   0.8293260000000000    0.6586520000000001    0.7499999999999999 Yb
   0.3413479999999999    0.1706740000000000    0.7499999999999999 Yb
   0.8293260000000000    0.1706740000000000    0.7499999999999999 Yb
   0.3333329999999999    0.6666670000000000    0.7499999999999999 Er
   0.6666670000000000    0.3333330000000000    0.2500000000000000 Er
