Er4 Ni4
1.0
   4.0821149999999999    0.0000000000000000    0.0000000000000000
   0.0000000000000000    5.3874100000000000    0.0000000000000000
   0.0000000000000000    0.0000000000000000    7.0125580000000003
Er Ni
4 4
direct
   0.7500000000000000    0.8697300000000000    0.8207760000000000 Er
   0.2500000000000000    0.1302700000000000    0.1792240000000000 Er
   0.2500000000000000    0.3697300000000000    0.6792240000000002 Er
   0.7500000000000000    0.6302700000000000    0.3207760000000001 Er
   0.2500000000000000    0.8751420000000001    0.5375670000000000 Ni
   0.7500000000000000    0.1248580000000000    0.4624330000000000 Ni
   0.7500000000000000    0.3751420000000000    0.9624330000000001 Ni
   0.2500000000000000    0.6248580000000001    0.0375670000000000 Ni
