Nd8 Sb6
1.0
  -4.7603000000000000    4.7603000000000000    4.7603000000000000
   4.7603000000000000   -4.7603000000000000    4.7603000000000000
   4.7603000000000000    4.7603000000000000   -4.7603000000000000
Nd Sb
8 6
direct
   0.1411310000000000    0.5000000000000000    0.0000000000000000 Nd
   0.5000000000000001   -0.0000000000000000    0.6411310000000000 Nd
   0.3588690000000000    0.3588690000000000    0.3588690000000000 Nd
   0.0000000000000000    0.1411310000000000    0.5000000000000000 Nd
   0.8588690000000001    0.8588690000000001    0.8588690000000001 Nd
   0.0000000000000000    0.6411310000000000    0.5000000000000001 Nd
   0.6411310000000000    0.5000000000000000    0.0000000000000000 Nd
   0.5000000000000000   -0.0000000000000000    0.1411310000000000 Nd
   0.8750000000000000    0.2500000000000001    0.1250000000000000 Sb
   0.1250000000000001    0.8750000000000000    0.2500000000000001 Sb
   0.3750000000000000    0.6250000000000000    0.7500000000000000 Sb
   0.2500000000000000    0.1250000000000000    0.8750000000000000 Sb
   0.7499999999999999    0.3749999999999999    0.6250000000000000 Sb
   0.6250000000000000    0.7499999999999999    0.3750000000000000 Sb
