Si6
1.0
  -3.3660079999999999    3.3660079999999999    3.3660079999999999
   3.3660079999999999   -3.3660079999999999    3.3660079999999999
   3.3660079999999999    3.3660079999999999   -3.3660079999999999
Si
6
direct
   0.7499999999999999    0.2500000000000001    0.5000000000000000 Si
   0.7499999999999998    0.4999999999999999    0.2500000000000000 Si
   0.4999999999999999    0.2500000000000000    0.7499999999999999 Si
   0.2499999999999999    0.4999999999999999    0.7499999999999999 Si
   0.2500000000000000    0.7499999999999999    0.5000000000000000 Si
   0.4999999999999998    0.7499999999999998    0.2500000000000000 Si
