Pm3 Ge1
1.0
   4.8078729999999998    0.0000000000000000    0.0000000000000000
   0.0000000000000000    4.8078729999999998    0.0000000000000000
   0.0000000000000000    0.0000000000000000    4.8078729999999998
Pm Ge
3 1
direct
   0.0000000000000000    0.4999999999999999    0.4999999999999999 Pm
   0.4999999999999999    0.0000000000000000    0.4999999999999999 Pm
   0.4999999999999999    0.4999999999999999    0.0000000000000000 Pm
   0.0000000000000000    0.0000000000000000    0.0000000000000000 Ge
