Li4 Mg2
1.0
   1.5949230000000001   -7.6141480000000001    0.0000000000000000
   1.5949230000000001    7.6141480000000001    0.0000000000000000
   0.0000000000000000    0.0000000000000000    5.0092739999999996
Li Mg
4 2
direct
   0.6007570000000000    0.3992430000000000    0.7500000000000000 Li
   0.2631559999999999    0.7368440000000001    0.7500000000000000 Li
   0.3992430000000000    0.6007570000000000    0.2500000000000000 Li
   0.7368440000000001    0.2631559999999999    0.2500000000000000 Li
   0.9320820000000000    0.0679179999999999    0.7500000000000000 Mg
   0.0679179999999999    0.9320820000000000    0.2500000000000000 Mg
