Mg40 O40
1.0
   9.3301829800000000    0.0975862400000000    0.0433528300000000
   0.0623401700000000   10.5444623699999998   -0.6675074800000000
   0.0568198200000000   -0.6692347100000000    9.9591933299999997
Mg O
40 40
direct
   0.7040921099999998    0.8632312099999999    0.8768138400000000 Mg
   0.2873864600000000    0.5473718399999998    0.6559368700000000 Mg
   0.8791308200000000    0.5292275099999999    0.0972984800000000 Mg
   0.6136925599999999    0.7405775800000000    0.5949731300000000 Mg
   0.3985914099999999    0.7213634799999998    0.3885979100000000 Mg
   0.2452979100000000    0.7571020899999997    0.0681181800000000 Mg
   0.5751498099999999    0.0856824000000000    0.8588949299999999 Mg
   0.5849619300000001    0.5151399499999999    0.8449987400000000 Mg
   0.0191060900000000    0.4714436900000000    0.5156194999999999 Mg
   0.8170385000000000    0.9482124799999999    0.6019440500000000 Mg
   0.4739314300000000    0.2829184800000000    0.6509571300000000 Mg
   0.0617229100000000    0.8344903099999997    0.4606481700000000 Mg
   0.8415509399999999    0.6325033000000000    0.7436065800000000 Mg
   0.1089917600000000    0.0042512400000000    0.2291932800000000 Mg
   0.0958051300000000    0.5717532400000001    0.8864731300000001 Mg
   0.9062992599999999    0.7854016499999998    0.0875690200000000 Mg
   0.9138169000000002    0.3211727099999999    0.2785484700000000 Mg
   0.7794398599999999    0.0773202700000000    0.1249342200000000 Mg
   0.7836180299999999    0.2782170099999999    0.9099993200000001 Mg
   0.4631585400000001    0.9605996899999999    0.5894978500000000 Mg
   0.9491493300000000    0.1225869600000000    0.4177035300000000 Mg
   0.5516207200000000    0.1477751200000000    0.3851844300000000 Mg
   0.4664174100000000    0.9165501699999999    0.1369212900000000 Mg
   0.3556608500000000    0.3894433400000000    0.9699411099999999 Mg
   0.7734603799999998    0.2419868000000000    0.6070681000000000 Mg
   0.5508837899999999    0.2852093600000000    0.1309196600000000 Mg
   0.1311511900000000    0.5712130800000000    0.2376838400000000 Mg
   0.4171634799999999    0.7933464199999999    0.7994348600000000 Mg
   0.2309705600000000    0.2314845000000000    0.1283823800000000 Mg
   0.2402547900000000    0.2234152500000000    0.4201416700000000 Mg
   0.5905438399999999    0.4798727099999998    0.5177731700000000 Mg
   0.3584120700000000    0.4287301199999999    0.3278990700000000 Mg
   0.0670420400000000    0.3065111200000000    0.8474059500000001 Mg
   0.8020952399999999    0.6395089500000000    0.3697586600000000 Mg
   0.1829681000000000    0.0463815100000000    0.6283122700000000 Mg
   0.0914478200000000    0.7882213699999998    0.7665080500000000 Mg
   0.5610825299999999    0.6057060899999999    0.1614737800000000 Mg
   0.7248264700000000    0.9108783699999999    0.3387544800000000 Mg
   0.3014939600000000    0.0356723600000000    0.9355242699999999 Mg
   0.9673168299999998    0.0559634100000000    0.8488431100000001 Mg
   0.7752472199999999    0.0537893500000000    0.9296952900000001 O
   0.4018155000000000    0.2422275500000000    0.2786098300000001 O
   0.8998654500000000    0.4482522299999999    0.9092926100000001 O
   0.6127660300000000    0.0263710500000000    0.2266230200000000 O
   0.4032659399999999    0.7067682300000000    0.6040629400000000 O
   0.5225697200000000    0.5451228899999999    0.3440994100000000 O
   0.5499952100000000    0.8497239999999998    0.4345600700000000 O
   0.8569899799999998    0.8102348499999997    0.4483824900000000 O
   0.1890047300000000    0.7067182499999999    0.3717121900000000 O
   0.9084560799999998    0.7858501499999999    0.8856582000000000 O
   0.2540931200000000    0.9497654899999998    0.1001899600000000 O
   0.0615359700000000    0.6520205399999999    0.0822322200000000 O
   0.1203970400000000    0.0145764700000000    0.4354782400000000 O
   0.2522596799999999    0.4253732100000000    0.1518736300000000 O
   0.0829293800000000    0.1935042299999999    0.2653704800000000 O
   0.9439944999999998    0.5033441799999999    0.2902975200000000 O
   0.3145510899999999    0.9609045299999999    0.7411684500000000 O
   0.6290130900000001    0.2433508199999999    0.7750835600000000 O
   0.4737540800000001    0.4673075499999999    0.6883713500000002 O
   0.4177442000000000    0.2005818500000000    0.9881323100000000 O
   0.1223809000000000    0.1570142599999999    0.9500008500000000 O
   0.5048092800000000    0.9261319300000000    0.9437303200000001 O
   0.4187943899999999    0.7394584699999999    0.1707103600000000 O
   0.9083212299999999    0.9531232099999998    0.2024756600000000 O
   0.6397911799999999    0.6850015499999998    0.8113854900000002 O
   0.6092802399999999    0.2985551299999999    0.4974383700000001 O
   0.0182921200000000    0.9319146399999998    0.6763708100000000 O
   0.7635042899999999    0.0710397800000000    0.4803020300000000 O
   0.5518818599999998    0.4537444399999999    0.0210298300000000 O
   0.0494441900000000    0.6011038599999999    0.6836429900000000 O
   0.7579099200000000    0.6782000299999998    0.1732311600000000 O
   0.2208603600000000    0.4222476300000000    0.8316900099999999 O
   0.7685443700000000    0.2716773800000000    0.1317120500000000 O
   0.6382297300000001    0.9216438200000000    0.6995375000000000 O
   0.7575070399999999    0.5908327099999999    0.5549452200000000 O
   0.2274409400000000    0.4178933200000000    0.4835772100000000 O
   0.2455305900000000    0.7131173699999999    0.8699547600000000 O
   0.3684584200000000    0.1338265700000000    0.5508801100000000 O
   0.9286525199999999    0.2005541000000000    0.7434430600000000 O
   0.9218316599999999    0.3064492500000000    0.4788479000000000 O
