W32 O84
1.0
   3.8574160000000002    0.0000000000000000    0.0000000000000000
   0.0000000000000000   18.4203769999999984    0.0000000000000000
   0.0000000000000000    0.0000000000000000   21.9402879999999989
W O
32 84
direct
   0.0000000000000000    0.4110520000000000    0.2736530000000000 W
   0.0000000000000000    0.9110520000000000    0.2263470000000000 W
   0.0000000000000000    0.9099790000000000    0.7535680000000000 W
   0.0000000000000000    0.1451640000000000    0.9423840000000000 W
   0.0000000000000000    0.6451640000000000    0.5576160000000000 W
   0.0000000000000000    0.7773600000000001    0.6525050000000000 W
   0.0000000000000000    0.8548359999999999    0.0576160000000000 W
   0.0000000000000000    0.3414090000000000    0.0131200000000000 W
   0.0000000000000000    0.0889480000000000    0.7736530000000000 W
   0.0000000000000000    0.5571930000000000    0.4043670000000000 W
   0.0000000000000000    0.5889480000000000    0.7263470000000000 W
   0.0000000000000000    0.6585910000000000    0.9868800000000000 W
   0.0000000000000000    0.9872560000000000    0.6130920000000000 W
   0.0000000000000000    0.2518880000000000    0.6671880000000000 W
   0.0000000000000000    0.0900210000000000    0.2464320000000000 W
   0.0000000000000000    0.5127440000000000    0.1130920000000000 W
   0.0000000000000000    0.4428070000000000    0.5956330000000000 W
   0.0000000000000000    0.2773600000000000    0.8474949999999999 W
   0.0000000000000000    0.7481120000000000    0.3328120000000000 W
   0.0000000000000000    0.3548360000000000    0.4423840000000000 W
   0.0000000000000000    0.9428069999999998    0.9043670000000000 W
   0.0000000000000000    0.7226399999999999    0.1525050000000000 W
   0.0000000000000000    0.2226400000000000    0.3474950000000000 W
   0.0000000000000000    0.2481120000000000    0.1671880000000000 W
   0.0000000000000000    0.0127440000000000    0.3869080000000000 W
   0.0000000000000000    0.8414090000000000    0.4868800000000000 W
   0.0000000000000000    0.1585910000000000    0.5131199999999999 W
   0.0000000000000000    0.4872560000000000    0.8869080000000000 W
   0.0000000000000000    0.0571930000000000    0.0956330000000000 W
   0.0000000000000000    0.4099790000000000    0.7464320000000000 W
   0.0000000000000000    0.5900210000000000    0.2535680000000000 W
   0.0000000000000000    0.7518880000000000    0.8328120000000000 W
   0.0000000000000000    0.9908050000000000    0.8188800000000001 O
   0.0000000000000000    0.5746890000000000    0.0474800000000000 O
   0.0000000000000000    0.2601670000000000    0.9413809999999999 O
   0.0000000000000000    0.3356290000000000    0.2082580000000000 O
   0.0000000000000000    0.5354850000000000    0.5643690000000000 O
   0.5000000000000000    0.5121320000000000    0.1193520000000000 O
   0.5000000000000000    0.0898570000000000    0.2460350000000000 O
   0.5000000000000000    0.4410090000000000    0.5988210000000000 O
   0.0000000000000000    0.3622870000000000    0.6602080000000000 O
   0.0000000000000000    0.4908050000000000    0.6811199999999999 O
   0.0000000000000000    0.2716090000000000    0.0854220000000000 O
   0.0000000000000000    0.1643710000000000    0.7082580000000001 O
   0.5000000000000000    0.7567630000000000    0.8308210000000000 O
   0.5000000000000000    0.2771940000000000    0.8477040000000000 O
   0.0000000000000000    0.7983380000000000    0.7441480000000000 O
   0.5000000000000000    0.1461860000000000    0.9414200000000000 O
   0.5000000000000000    0.7432370000000000    0.3308210000000000 O
   0.5000000000000000    0.2228060000000000    0.3477040000000000 O
   0.0000000000000000    0.8760650000000001    0.9678900000000000 O
   0.0000000000000000    0.3760650000000000    0.5321100000000000 O
   0.5000000000000000    0.5589910000000000    0.4011790000000000 O
   0.0000000000000000    0.7716090000000000    0.4145779999999999 O
   0.0000000000000000    0.9212820000000000    0.4224670000000000 O
   0.5000000000000000    0.9410090000000000    0.9011790000000000 O
   0.0000000000000000    0.8356290000000000    0.2917420000000000 O
   0.0000000000000000    0.4212820000000000    0.0775330000000000 O
   0.0000000000000000    0.7398330000000000    0.0586190000000000 O
   0.5000000000000000    0.7228059999999999    0.1522960000000000 O
   0.5000000000000000    0.4094440000000000    0.2767140000000000 O
   0.0000000000000000    0.0095670000000000    0.7071850000000000 O
   0.0000000000000000    0.1377130000000000    0.1602080000000000 O
   0.5000000000000000    0.2567630000000000    0.6691790000000000 O
   0.5000000000000000    0.0121320000000000    0.3806480000000000 O
   0.0000000000000000    0.1239350000000000    0.0321100000000000 O
   0.5000000000000000    0.2432370000000000    0.1691790000000000 O
   0.5000000000000000    0.4878680000000000    0.8806479999999999 O
   0.5000000000000000    0.5898570000000000    0.2539650000000000 O
   0.0000000000000000    0.6239350000000000    0.4678900000000000 O
   0.0000000000000000    0.8882339999999999    0.6623060000000000 O
   0.5000000000000000    0.6461860000000000    0.5585800000000000 O
   0.5000000000000000    0.8538140000000000    0.0585800000000000 O
   0.0000000000000000    0.8622870000000000    0.8397920000000000 O
   0.0000000000000000    0.2283910000000000    0.5854220000000000 O
   0.0000000000000000    0.2983380000000000    0.7558520000000000 O
   0.5000000000000000    0.1610410000000000    0.5111680000000000 O
   0.0000000000000000    0.6643320000000000    0.6524700000000000 O
   0.5000000000000000    0.4101430000000000    0.7460349999999999 O
   0.0000000000000000    0.0091950000000000    0.1811200000000000 O
   0.5000000000000000    0.3389590000000000    0.0111680000000000 O
   0.0000000000000000    0.5787180000000000    0.9224670000000000 O
   0.5000000000000000    0.9094439999999999    0.2232860000000000 O
   0.0000000000000000    0.0787180000000000    0.5775330000000000 O
   0.0000000000000000    0.4253110000000000    0.9525199999999999 O
   0.0000000000000000    0.9253110000000000    0.5474800000000000 O
   0.5000000000000000    0.7771940000000001    0.6522960000000000 O
   0.0000000000000000    0.3882340000000000    0.8376940000000000 O
   0.5000000000000000    0.0905560000000000    0.7767140000000000 O
   0.0000000000000000    0.0746890000000000    0.4525200000000000 O
   0.0000000000000000    0.1643320000000000    0.8475299999999999 O
   0.0000000000000000    0.3356680000000000    0.3475300000000000 O
   0.0000000000000000    0.6643710000000000    0.7917419999999999 O
   0.0000000000000000    0.5091950000000000    0.3188800000000000 O
   0.0000000000000000    0.9904330000000000    0.2928150000000000 O
   0.0000000000000000    0.7283910000000000    0.9145780000000000 O
   0.0000000000000000    0.6377130000000000    0.3397920000000000 O
   0.0000000000000000    0.8356680000000000    0.1524700000000000 O
   0.0000000000000000    0.1117660000000000    0.3376940000000000 O
   0.0000000000000000    0.2398330000000000    0.4413810000000000 O
   0.0000000000000000    0.7016620000000000    0.2441480000000000 O
   0.5000000000000000    0.6610410000000000    0.9888320000000000 O
   0.5000000000000000    0.9878680000000000    0.6193520000000000 O
   0.5000000000000000    0.8389590000000000    0.4888320000000000 O
   0.0000000000000000    0.0354850000000000    0.9356310000000000 O
   0.0000000000000000    0.5095670000000000    0.7928150000000000 O
   0.0000000000000000    0.4645150000000000    0.4356310000000000 O
   0.5000000000000000    0.3538140000000000    0.4414200000000000 O
   0.0000000000000000    0.6117660000000000    0.1623060000000000 O
   0.0000000000000000    0.2016620000000000    0.2558520000000000 O
   0.0000000000000000    0.7601669999999999    0.5586190000000000 O
   0.0000000000000000    0.4904330000000000    0.2071850000000000 O
   0.0000000000000000    0.9645149999999999    0.0643690000000000 O
   0.5000000000000000    0.0589910000000000    0.0988210000000000 O
   0.5000000000000000    0.9101430000000000    0.7539649999999999 O
   0.5000000000000000    0.5905560000000000    0.7232860000000000 O
