Si100
1.0
  11.6127229799999991    0.8940103600000000    1.0337893100000000
   0.7977374100000000   13.3672724600000006   -0.8604892000000000
   1.0353058600000000   -0.9434027600000000   12.5965365100000000
Si
100
direct
   0.8961737300000001    0.5672792400000000    0.2403893500000000 Si
   0.0427274800000000    0.5177895500000002    0.5989236200000000 Si
   0.3704731600000001    0.8751671800000003    0.5637751200000001 Si
   0.6221262400000001    0.4526654600000000    0.2157028100000000 Si
   0.4154719099999999    0.8440474300000002    0.1230120900000000 Si
   0.3913544100000000    0.1865594400000000    0.7294282300000000 Si
   0.8610983000000000    0.6587579300000002    0.8591705000000001 Si
   0.6181607599999999    0.0161597800000000    0.2455257000000000 Si
   0.6333782000000001    0.9245712500000002    0.3857988900000000 Si
   0.4906336800000000    0.5647623300000001    0.9699846100000001 Si
   0.7139108400000002    0.3534475600000000    0.8918975800000001 Si
   0.3666793000000000    0.4029456500000000    0.4620887800000000 Si
   0.8332900899999999    0.9102719800000002    0.3911494700000000 Si
   0.6431637099999999    0.7440579200000003    0.6759954300000000 Si
   0.6368260800000000    0.1886431800000000    0.3109203100000000 Si
   0.3839485399999999    0.1310556000000000    0.5115306000000001 Si
   0.1781885300000000    0.5795620800000001    0.3942317500000000 Si
   0.4276493900000000    0.3579230500000000    0.7724726200000002 Si
   0.4976847600000000    0.2615629100000000    0.4753457000000000 Si
   0.4151119999999999    0.7660834400000001    0.2800596800000000 Si
   0.9650457199999999    0.0438980000000000    0.3728757100000000 Si
   0.8923057899999999    0.1205937500000000    0.9447169200000000 Si
   0.9249996300000000    0.3727268300000001    0.6492969700000000 Si
   0.0430108500000000    0.8936915100000000    0.5727451800000000 Si
   0.3127684400000000    0.0677234000000000    0.3498993300000001 Si
   0.0549231000000000    0.7115466499999999    0.8489661400000001 Si
   0.8968067099999999    0.2426389600000000    0.8279321000000002 Si
   0.3292296800000000    0.1165033300000000    0.8875635300000000 Si
   0.5070372000000000    0.9917065500000001    0.5516805100000000 Si
   0.7307287800000000    0.6501950800000001    0.0206401400000000 Si
   0.8488902900000002    0.7889249400000002    0.6559214299999999 Si
   0.8585373100000000    0.5071059100000000    0.5417660200000000 Si
   0.7631343900000001    0.8426579000000001    0.8962299499999999 Si
   0.4020097000000000    0.5428427500000000    0.8082458400000000 Si
   0.0835370300000000    0.7495431500000002    0.2362526200000000 Si
   0.6072172600000000    0.7577139400000003    0.3270943599999999 Si
   0.7183605699999999    0.4211336400000000    0.7243953600000000 Si
   0.4457628600000000    0.0151475600000000    0.1755407000000000 Si
   0.2761462200000000    0.8455146400000001    0.7401734900000000 Si
   0.7781307700000000    0.7018466400000000    0.1901570100000000 Si
   0.4138290300000000    0.3321341300000001    0.0887121100000000 Si
   0.1779328100000001    0.9870296900000000    0.6535060100000000 Si
   0.6311088399999999    0.0539272000000000    0.6682935400000000 Si
   0.2628109499999999    0.9041330300000001    0.0303234300000000 Si
   0.0717061900000000    0.3136410800000001    0.3312940000000000 Si
   0.1734670700000000    0.0766808600000000    0.0967537800000000 Si
   0.2096269500000000    0.1610474300000000    0.6551898200000000 Si
   0.0511078900000000    0.4965348400000001    0.1008806300000000 Si
   0.1788394000000000    0.4265367900000001    0.7912720300000001 Si
   0.9743974899999998    0.4825459300000001    0.7949979500000000 Si
   0.1994994800000000    0.5887041700000001    0.8901990999999999 Si
   0.0500028400000000    0.2141318100000000    0.5694960900000001 Si
   0.5421259500000000    0.1179347300000000    0.8535267300000001 Si
   0.8655257199999999    0.3549339800000000    0.4082592600000001 Si
   0.2970420200000000    0.9025787500000001    0.4005422000000000 Si
   0.9651483500000001    0.4108215299999999    0.9649657000000001 Si
   0.5287095900000000    0.2960235000000001    0.9067338600000000 Si
   0.5043834600000000    0.6195265600000001    0.6708875600000002 Si
   0.0950945799999999    0.8554822300000001    0.9575064100000001 Si
   0.1124616699999999    0.1220344800000000    0.9340568400000001 Si
   0.6613003800000001    0.4932782500000000    0.0318558000000000 Si
   0.8382120400000000    0.1714211600000000    0.1398671700000000 Si
   0.7465228999999998    0.5945007400000001    0.7186231400000002 Si
   0.8872642599999999    0.1512364200000000    0.6574315400000000 Si
   0.8751885100000000    0.9681258000000001    0.8329080300000000 Si
   0.6869388100000001    0.1835223400000000    0.0304706800000000 Si
   0.5745465500000001    0.0491054000000000    0.0141344200000000 Si
   0.9878236800000000    0.0666232000000000    0.1929313300000000 Si
   0.4780345099999999    0.5201779700000001    0.3799566200000001 Si
   0.9006217700000000    0.8253002500000000    0.2105949300000000 Si
   0.1033158300000000    0.8864338600000002    0.3803991800000000 Si
   0.0547495100000000    0.7458452200000001    0.6692753000000001 Si
   0.3565931200000000    0.5186802400000001    0.1078306900000000 Si
   0.2197078000000000    0.6390613700000001    0.5658343900000000 Si
   0.2724275400000000    0.2193124200000000    0.0655518100000000 Si
   0.8441091100000001    0.9778968400000000    0.6559303700000000 Si
   0.8034166299999999    0.4287550400000000    0.2660068400000000 Si
   0.5713261099999999    0.8378377900000002    0.8509786700000003 Si
   0.4128888999999999    0.6879032500000001    0.5377517500000000 Si
   0.8520722099999999    0.7589933100000003    0.4697032600000001 Si
   0.6182267299999999    0.5188766900000001    0.5071952200000001 Si
   0.5472617399999999    0.7302713199999999    0.9860239500000001 Si
   0.9307377400000000    0.9349290800000002    0.0857390700000000 Si
   0.0970350200000000    0.3323384500000000    0.1449609400000000 Si
   0.0951874400000000    0.2725432900000000    0.8437184599999999 Si
   0.2900998400000000    0.4929896500000001    0.6411782100000000 Si
   0.7330724199999999    0.9486012100000000    0.0699726500000000 Si
   0.3773054100000000    0.9337799500000002    0.8669822400000000 Si
   0.7078732399999997    0.1921792800000000    0.5984510100000001 Si
   0.1139173100000000    0.1533075700000000    0.3823989600000000 Si
   0.6713700700000000    0.6877206600000001    0.4771920100000000 Si
   0.7982065699999998    0.1890479100000000    0.4159872600000001 Si
   0.1807345600000000    0.6126503400000000    0.0836054000000000 Si
   0.5727889800000001    0.2912904700000001    0.1820133000000000 Si
   0.3503988499999999    0.6054891600000001    0.2829222600000000 Si
   0.9070252700000001    0.3211560200000001    0.1100059300000000 Si
   0.1705632900000000    0.4167114200000001    0.4383074000000001 Si
   0.5830015899999998    0.3467608600000001    0.6212977500000000 Si
   0.0023884000000000    0.6479535200000001    0.3558199100000000 Si
   0.0833416900000000    0.9679415000000000    0.8302149700000000 Si
