V2 F8
1.0
   2.5995729999999999    5.7107760000000001    0.0000000000000000
  -2.5995729999999999    5.7107760000000001    0.0000000000000000
   0.0000000000000000    0.3541210000000000    5.4637380000000002
V F
2 8
direct
   0.0000000000000000    0.5000000000000000    0.0000000000000000 V
   0.4999999999999999    0.0000000000000000    0.5000000000000000 V
   0.9555740000000000    0.2519020000000001    0.0002420000000000 F
   0.7536230000000000    0.6654610000000000    0.2971940000000000 F
   0.6654609999999999    0.7536229999999999    0.7971930000000002 F
   0.7480980000000000    0.0444260000000000    0.4997580000000000 F
   0.2519020000000002    0.9555740000000000    0.5002420000000000 F
   0.3345390000000000    0.2463770000000000    0.2028060000000000 F
   0.2463770000000000    0.3345390000000000    0.7028060000000000 F
   0.0444260000000000    0.7480980000000000    0.9997580000000001 F
