Lu4 Tc8
1.0
   2.6642549999999998   -4.6146240000000001    0.0000000000000000
   2.6642549999999998    4.6146240000000001    0.0000000000000000
   0.0000000000000000    0.0000000000000000    8.8117049999999999
Lu Tc
4 8
direct
   0.3333330000000000    0.6666670000000000    0.4363420000000001 Lu
   0.6666670000000000    0.3333330000000000    0.5636580000000000 Lu
   0.6666670000000000    0.3333330000000000    0.9363420000000001 Lu
   0.3333330000000000    0.6666670000000000    0.0636580000000000 Lu
   0.0000000000000000    0.0000000000000000    0.5000000000000000 Tc
   0.0000000000000000    0.0000000000000000    0.0000000000000000 Tc
   0.8278940000000000    0.1721060000000000    0.2500000000000000 Tc
   0.8278940000000000    0.6557880000000001    0.2500000000000000 Tc
   0.3442120000000000    0.1721060000000000    0.2500000000000000 Tc
   0.1721060000000000    0.8278940000000000    0.7500000000000000 Tc
   0.1721060000000000    0.3442120000000000    0.7500000000000000 Tc
   0.6557880000000001    0.8278940000000000    0.7500000000000000 Tc
