Lu3 Cd1
1.0
   4.7609009999999996    0.0000000000000000    0.0000000000000000
   0.0000000000000000    4.7609009999999996    0.0000000000000000
   0.0000000000000000    0.0000000000000000    4.7609009999999996
Lu Cd
3 1
direct
   0.0000000000000000    0.5000000000000000    0.5000000000000000 Lu
   0.5000000000000000    0.0000000000000000    0.5000000000000000 Lu
   0.5000000000000000    0.5000000000000000    0.0000000000000000 Lu
   0.0000000000000000    0.0000000000000000    0.0000000000000000 Cd
