Sr2 Tl4
1.0
   2.6074600000000001   -4.5162540000000000    0.0000000000000000
   2.6074600000000001    4.5162540000000000    0.0000000000000000
   0.0000000000000000    0.0000000000000000    8.4352660000000004
Sr Tl
2 4
direct
   0.0000000000000000    0.0000000000000000    0.2500000000000000 Sr
   0.0000000000000000    0.0000000000000000    0.7500000000000001 Sr
   0.3333330000000000    0.6666670000000000    0.4511470000000001 Tl
   0.6666670000000000    0.3333330000000000    0.9511470000000000 Tl
   0.6666670000000000    0.3333330000000000    0.5488530000000000 Tl
   0.3333330000000000    0.6666670000000000    0.0488530000000000 Tl
