Mg6 Si8
1.0
   5.9401440000000001    0.0000000000000000    0.0000000000000000
  -1.7427120000000000    6.3500079999999999    0.0000000000000000
  -1.2253449999999999   -2.4077809999999999    6.8710410000000000
Mg Si
6 8
direct
   0.8807080000000000    0.5081440000000000    0.4024780000000001 Mg
   0.4101040000000001    0.8478110000000000    0.5604940000000000 Mg
   0.5689780000000000    0.2157650000000000    0.9689900000000001 Mg
   0.6338890000000000    0.6873290000000001    0.8881260000000000 Mg
   0.8905310000000001    0.9806849999999999    0.3470890000000000 Mg
   0.0905310000000000    0.2112570000000000    0.0700590000000000 Mg
   0.1114560000000001    0.3255800000000000    0.7139290000000001 Si
   0.1783670000000001    0.7549750000000001    0.8484810000000002 Si
   0.1246430000000000    0.7021890000000000    0.1532830000000000 Si
   0.4840829999999999    0.5926100000000000    0.2066200000000000 Si
   0.9209220000000000    0.9226120000000000    0.7034650000000000 Si
   0.6732810000000000    0.2848530000000000    0.6323920000000000 Si
   0.3330760000000000    0.3909330000000000    0.4648380000000000 Si
   0.4460709999999999    0.0754470000000000    0.2864040000000000 Si
