Al20 Rh8
1.0
   3.9755799999999999   -6.8859069999999996    0.0000000000000000
   3.9755799999999999    6.8859069999999996    0.0000000000000000
   0.0000000000000000    0.0000000000000000    7.9042479999999999
Al Rh
20 8
direct
   0.0000000000000000    0.0000000000000000    0.0000000000000000 Al
   0.0000000000000000    0.0000000000000000    0.4999999999999999 Al
   0.4711909999999998    0.9423810000000000    0.2500000000000000 Al
   0.5288089999999999    0.4711910000000000    0.7500000000000000 Al
   0.9423809999999998    0.4711910000000000    0.7500000000000000 Al
   0.0576189999999998    0.5288090000000000    0.2500000000000000 Al
   0.4711909999999999    0.5288090000000000    0.2500000000000000 Al
   0.5288089999999999    0.0576189999999999    0.7500000000000000 Al
   0.1928120000000000    0.3856230000000000    0.9419969999999999 Al
   0.8071879999999999    0.1928120000000000    0.4419970000000000 Al
   0.3856230000000000    0.1928120000000000    0.4419970000000000 Al
   0.6143769999999998    0.8071880000000000    0.9419969999999999 Al
   0.1928119999999998    0.8071880000000000    0.9419969999999999 Al
   0.8071879999999999    0.6143770000000000    0.0580030000000000 Al
   0.8071879999999999    0.1928120000000000    0.0580030000000000 Al
   0.8071879999999999    0.6143770000000000    0.4419970000000000 Al
   0.3856230000000000    0.1928120000000000    0.0580030000000000 Al
   0.6143769999999998    0.8071880000000000    0.5580029999999999 Al
   0.1928120000000000    0.3856230000000000    0.5580029999999999 Al
   0.1928119999999998    0.8071880000000000    0.5580029999999999 Al
   0.3333329999999999    0.6666670000000000    0.7500000000000000 Rh
   0.6666669999999999    0.3333330000000000    0.2500000000000000 Rh
   0.1297499999999999    0.2595010000000000    0.2500000000000000 Rh
   0.8702499999999999    0.1297500000000000    0.7500000000000000 Rh
   0.2595009999999999    0.1297500000000000    0.7500000000000000 Rh
   0.7404989999999999    0.8702500000000000    0.2500000000000000 Rh
   0.1297499999999999    0.8702500000000000    0.2500000000000000 Rh
   0.8702499999999999    0.7404990000000000    0.7500000000000000 Rh
