Fe1 Cl6
1.0
   4.8380869999999998   -6.4579719999999998    0.0000000000000000
   4.8380869999999998    6.4579719999999998    0.0000000000000000
   0.0000000000000000    0.0000000000000000   40.1361770000000035
Fe Cl
1 6
direct
   0.0000000000000000    0.0000000000000000    0.0000000000000000 Fe
   0.0000000000000000    0.0000000000000000    0.2499660000000000 Cl
   0.0000000000000000    0.0000000000000000    0.7500340000000000 Cl
   0.2767380000000000    0.0405220000000000    0.0000000000000000 Cl
   0.7232620000000000    0.9594780000000002    0.0000000000000000 Cl
   0.0405220000000000    0.2767380000000000    0.0000000000000000 Cl
   0.9594780000000002    0.7232620000000000    0.0000000000000000 Cl
