Sn30 O60
1.0
  11.2698169099999994   -0.1571502300000000   -0.3021092200000000
  -0.1608548600000000   10.6802489800000000    0.0203050400000000
  -0.2979372300000000    0.0224502200000000   10.5474502300000008
Sn O
30 60
direct
   0.8467108500000000    0.0956459100000000    0.1610228200000000 Sn
   0.4951899900000000    0.5751004800000001    0.9502010200000001 Sn
   0.9557590100000000    0.8246688400000003    0.6555776100000000 Sn
   0.4866637699999999    0.8744644200000001    0.7205650399999999 Sn
   0.0361311300000000    0.6514136000000000    0.8998200999999999 Sn
   0.7567153199999999    0.5451306700000002    0.7338489000000000 Sn
   0.4130167400000000    0.3529890300000000    0.7015728700000000 Sn
   0.4891005299999999    0.2452063100000000    0.0961678100000000 Sn
   0.1100674100000000    0.5912482600000001    0.4549554900000000 Sn
   0.4574790200000000    0.9728784200000002    0.3341207300000000 Sn
   0.8901096600000000    0.4019535600000002    0.0270733200000000 Sn
   0.2010068700000000    0.5998735500000000    0.1587933400000000 Sn
   0.2838721200000000    0.7719986000000000    0.9178073599999998 Sn
   0.5954553499999999    0.8978045600000001    0.0585485500000000 Sn
   0.4948963499999999    0.5547887000000001    0.4985834300000000 Sn
   0.2224609700000000    0.3628335300000001    0.9565939300000001 Sn
   0.0104907800000000    0.9218425400000000    0.0064369400000000 Sn
   0.1374909500000000    0.2979703800000000    0.5824950000000000 Sn
   0.9138070199999999    0.6548203500000001    0.2170015100000000 Sn
   0.6928457099999999    0.7721917300000001    0.4765373800000000 Sn
   0.0957045500000000    0.1495984100000000    0.3041664500000000 Sn
   0.2868897800000000    0.3551362500000000    0.3381774100000000 Sn
   0.9525645800000000    0.1743773100000000    0.8375906300000000 Sn
   0.6370093199999999    0.5634976900000002    0.2212343800000000 Sn
   0.2888500500000000    0.0924774000000000    0.8388249700000000 Sn
   0.1950040300000000    0.9329778100000001    0.5306910900000000 Sn
   0.8751107699999999    0.0910477400000000    0.5424066900000000 Sn
   0.5794497299999999    0.2578563300000000    0.4387677099999999 Sn
   0.6513633800000000    0.1414582600000000    0.8181369300000000 Sn
   0.8099656900000000    0.4297821000000000    0.4677478800000000 Sn
   0.8098906200000000    0.2869576400000000    0.8844886799999999 O
   0.1554919100000000    0.7351655900000001    0.7798803300000000 O
   0.3890329500000000    0.5316345800000000    0.6357518599999999 O
   0.5336109000000000    0.4415916600000001    0.0977972700000000 O
   0.8851430499999999    0.2766734600000000    0.1714279600000000 O
   0.5274397899999999    0.6491532900000000    0.3403481700000000 O
   0.2600901899999999    0.5480666000000001    0.3599760900000000 O
   0.0441356400000000    0.3082473800000001    0.9530065699999999 O
   0.5474464800000000    0.7508871500000001    0.5937210900000000 O
   0.4613626699999999    0.3964483600000001    0.3724134200000000 O
   0.3237450499999999    0.2063605600000000    0.0049657300000000 O
   0.8787640099999998    0.0514668200000000    0.9719505200000000 O
   0.6155694200000000    0.1551748900000001    0.0134074700000000 O
   0.0879265300000000    0.7658852000000002    0.5319531600000000 O
   0.3167739099999999    0.9549936300000003    0.6773865500000000 O
   0.8878355199999999    0.5442559800000001    0.8822090400000000 O
   0.3654431100000000    0.9414344700000001    0.9154395800000000 O
   0.1032357700000000    0.3301815400000001    0.3817445699999999 O
   0.0932270800000000    0.6953643600000001    0.2840239899999999 O
   0.1165649900000000    0.4837194800000000    0.6077737700000000 O
   0.2649182999999999    0.1833726400000000    0.2584546800000000 O
   0.3021843799999999    0.8969268600000001    0.3894089900000000 O
   0.0403304900000000    0.9851622700000001    0.6271667300000000 O
   0.8606440499999999    0.4300269300000001    0.6483686600000000 O
   0.7891686999999997    0.5279487700000000    0.1272529400000000 O
   0.6157139400000000    0.5137980400000000    0.8300895200000000 O
   0.9241077000000000    0.1050514300000000    0.3582356000000000 O
   0.1379480100000000    0.7790081800000003    0.0335354100000000 O
   0.9394312000000000    0.5358749400000001    0.3879434600000000 O
   0.6778006599999999    0.5612568000000001    0.5356125700000000 O
   0.3840068999999999    0.4313114000000001    0.8810054400000000 O
   0.7581705699999999    0.2311216600000000    0.4849479300000000 O
   0.0172751300000000    0.5379675500000001    0.1071080300000000 O
   0.5182683300000001    0.1625676300000000    0.2770037900000000 O
   0.4519795000000000    0.1823233500000000    0.7853027900000000 O
   0.6823064599999999    0.4017992600000000    0.3304157400000000 O
   0.5999639799999998    0.6985947900000001    0.0670959500000000 O
   0.6098484799999999    0.9384517400000002    0.8638889799999999 O
   0.4498765000000001    0.9388494200000003    0.1467552000000000 O
   0.4352223700000000    0.7214374100000002    0.8330662799999999 O
   0.1067216700000000    0.0519824300000000    0.8868039599999998 O
   0.7279859899999999    0.9616277200000000    0.1741225200000000 O
   0.8179099800000000    0.0778502900000000    0.7256724300000000 O
   0.0297390000000000    0.0336186200000000    0.1666636300000000 O
   0.9869211399999999    0.2240741200000000    0.6459377600000000 O
   0.8332283800000001    0.9016031600000001    0.5178726100000000 O
   0.1770579500000000    0.5444320900000001    0.9432762900000001 O
   0.8153862500000000    0.7066498600000001    0.6495305200000000 O
   0.1603396300000000    0.1104177300000000    0.4813307700000000 O
   0.5687269299999999    0.3458805400000001    0.6089426100000001 O
   0.9455809799999999    0.8140070900000003    0.8481539600000000 O
   0.2230624000000000    0.2683556500000001    0.7688717800000000 O
   0.2569768600000000    0.4179669600000001    0.1470119500000000 O
   0.3522125500000000    0.6661178400000001    0.0684909400000000 O
   0.3091789200000000    0.3013814800000000    0.5371368799999999 O
   0.7633845700000000    0.6893561900000001    0.3175405400000000 O
   0.4982714699999999    0.0867554200000000    0.5164940200000000 O
   0.9053164899999998    0.7930789200000000    0.0919415900000000 O
   0.5732457100000000    0.0269692300000000    0.6168469699999999 O
   0.6133064499999998    0.9036702300000001    0.3742114300000000 O
