Tl6 Pt2
1.0
   5.9102540000000001    0.0000000000000000    0.0000000000000000
   0.0000000000000000    5.9102540000000001    0.0000000000000000
   0.0000000000000000    0.0000000000000000    5.9102540000000001
Tl Pt
6 2
direct
   0.0000000000000000    0.4999999999999999    0.7499999999999999 Tl
   0.4999999999999999    0.2500000000000000    0.0000000000000000 Tl
   0.7499999999999999    0.0000000000000000    0.4999999999999999 Tl
   0.0000000000000000    0.4999999999999999    0.2500000000000000 Tl
   0.4999999999999999    0.7499999999999999    0.0000000000000000 Tl
   0.2500000000000000    0.0000000000000000    0.4999999999999999 Tl
   0.4999999999999999    0.4999999999999999    0.4999999999999999 Pt
   0.0000000000000000    0.0000000000000000    0.0000000000000000 Pt
