Tl3 Cu1
1.0
  -2.2860689999999999    2.2860689999999999    4.9863039999999996
   2.2860689999999999   -2.2860689999999999    4.9863039999999996
   2.2860689999999999    2.2860689999999999   -4.9863039999999996
Tl Cu
3 1
direct
   0.7500000000000001    0.2499999999999999    0.5000000000000001 Tl
   0.2500000000000000    0.7500000000000001    0.5000000000000001 Tl
   0.5000000000000000    0.5000000000000000    0.0000000000000000 Tl
   0.0000000000000000    0.0000000000000000    0.0000000000000000 Cu
