Sc22 Ge20
1.0
  -5.1724500000000004    5.1724500000000004    7.6878060000000001
   5.1724500000000004   -5.1724500000000004    7.6878060000000001
   5.1724500000000004    5.1724500000000004   -7.6878060000000001
Sc Ge
22 20
direct
   0.8106500000000000    0.0625910000000000    0.2519410000000000 Sc
   0.8106500000000000    0.5587100000000000    0.7480590000000000 Sc
   0.0625910000000000    0.8106500000000000    0.2519410000000000 Sc
   0.5587100000000000    0.8106500000000000    0.7480590000000000 Sc
   0.1893499999999999    0.9374090000000000    0.7480590000000000 Sc
   0.1893500000000000    0.4412900000000001    0.2519410000000001 Sc
   0.9374090000000000    0.1893499999999999    0.7480589999999999 Sc
   0.4412900000000001    0.1893500000000000    0.2519410000000000 Sc
   0.1764790000000000    0.1764790000000000    0.3529580000000000 Sc
   0.8235209999999999    0.8235209999999999    0.6470420000000000 Sc
   0.1764790000000000    0.8235210000000001    0.0000000000000000 Sc
   0.8235210000000001    0.1764790000000000   -0.0000000000000000 Sc
   0.6619280000000000    0.6619280000000000    0.0000000000000000 Sc
   0.3380720000000000    0.3380720000000000    0.0000000000000000 Sc
   0.6025060000000001    0.9296370000000000    0.3271310000000000 Sc
   0.6025059999999999    0.2753740000000000    0.6728690000000001 Sc
   0.9296370000000000    0.6025060000000001    0.3271310000000000 Sc
   0.2753740000000000    0.6025059999999999    0.6728690000000001 Sc
   0.3974940000000001    0.0703630000000000    0.6728690000000001 Sc
   0.3974940000000000    0.7246259999999999    0.3271309999999999 Sc
   0.0703630000000000    0.3974940000000001    0.6728690000000001 Sc
   0.7246259999999999    0.3974940000000000    0.3271309999999999 Sc
   0.3587750000000000    0.0000000000000000    0.3587750000000000 Ge
   0.6412250000000000    0.0000000000000000    0.6412250000000000 Ge
  -0.0000000000000000    0.6412250000000000    0.6412250000000000 Ge
  -0.0000000000000000    0.3587750000000000    0.3587750000000000 Ge
   0.8872080000000000    0.8872080000000000    0.0000000000000000 Ge
   0.1127920000000000    0.1127920000000000    0.0000000000000000 Ge
   0.3744670000000000    0.3744670000000000    0.7489340000000000 Ge
   0.6255330000000000    0.6255330000000000    0.2510660000000000 Ge
   0.3744670000000000    0.6255330000000000    0.0000000000000000 Ge
   0.6255330000000000    0.3744670000000000   -0.0000000000000000 Ge
   0.7499999999999999    0.2500000000000001    0.4999999999999999 Ge
   0.2500000000000000    0.7499999999999999    0.4999999999999999 Ge
   0.8857320000000000    0.8857320000000000    0.4153520000000000 Ge
   0.4703800000000000    0.4703800000000000    0.5846479999999998 Ge
   0.8857320000000000    0.4703800000000001    0.0000000000000000 Ge
   0.4703800000000001    0.8857320000000000   -0.0000000000000000 Ge
   0.1142679999999999    0.1142679999999999    0.5846479999999998 Ge
   0.5296200000000000    0.5296200000000000    0.4153520000000000 Ge
   0.1142680000000000    0.5296200000000000    0.0000000000000000 Ge
   0.5296200000000000    0.1142680000000000   -0.0000000000000000 Ge
