Al6 Ir2
1.0
   2.1501150000000000   -3.7241080000000002    0.0000000000000000
   2.1501150000000000    3.7241080000000002    0.0000000000000000
   0.0000000000000000    0.0000000000000000    7.7957010000000002
Al Ir
6 2
direct
   0.0000000000000000    0.0000000000000000    0.2500000000000000 Al
   0.0000000000000000    0.0000000000000000    0.7500000000000000 Al
   0.3333329999999999    0.6666670000000000    0.5790870000000000 Al
   0.6666670000000000    0.3333330000000000    0.0790870000000000 Al
   0.6666670000000000    0.3333330000000000    0.4209130000000000 Al
   0.3333329999999999    0.6666670000000000    0.9209130000000000 Al
   0.3333329999999999    0.6666670000000000    0.2500000000000000 Ir
   0.6666670000000000    0.3333330000000000    0.7500000000000000 Ir
