Bi8 Ir4
1.0
   6.8969509999999996    0.0000000000000000    0.0000000000000000
   0.0000000000000000    7.0156419999999997    0.0000000000000000
   0.0000000000000000    3.0992240000000000    6.3692279999999997
Bi Ir
8 4
direct
   0.3581030000000001    0.6532160000000000    0.1708150000000000 Bi
   0.8581029999999999    0.3467839999999999    0.3291849999999999 Bi
   0.6418970000000002    0.3467840000000001    0.8291849999999999 Bi
   0.1418970000000000    0.6532160000000001    0.6708149999999999 Bi
   0.6363010000000000    0.8546000000000000    0.3742510000000000 Bi
   0.1363010000000000    0.1454000000000000    0.1257490000000000 Bi
   0.3636990000000001    0.1454000000000000    0.6257489999999999 Bi
   0.8636990000000001    0.8546000000000001    0.8742509999999999 Bi
   0.9969940000000002    0.7291400000000000    0.2860510000000000 Ir
   0.4969940000000000    0.2708599999999999    0.2139490000000000 Ir
   0.0030060000000000    0.2708600000000000    0.7139489999999998 Ir
   0.5030060000000000    0.7291400000000001    0.7860510000000001 Ir
