Mg4 Sb2
1.0
   2.8918750000000002   -4.6063349999999996    0.0000000000000000
   2.8918750000000002    4.6063349999999996    0.0000000000000000
   0.0000000000000000    0.0000000000000000    5.4340419999999998
Mg Sb
4 2
direct
   0.0239250000000000    0.3479360000000000    0.7500000000000001 Mg
   0.3479360000000000    0.0239249999999999    0.7500000000000001 Mg
   0.6520640000000000    0.9760750000000000    0.2500000000000000 Mg
   0.9760750000000000    0.6520640000000000    0.2500000000000000 Mg
   0.7051590000000000    0.7051590000000000    0.7500000000000001 Sb
   0.2948410000000000    0.2948410000000000    0.2500000000000000 Sb
