Na1 Yb3
1.0
   0.0000000000000000    4.3249750000000002    4.3249750000000002
   4.3249750000000002    0.0000000000000000    4.3249750000000002
   4.3249750000000002    4.3249750000000002    0.0000000000000000
Na Yb
1 3
direct
   0.0000000000000000    0.0000000000000000    0.0000000000000000 Na
   0.2500000000000000    0.2500000000000000    0.2500000000000000 Yb
   0.7500000000000000    0.7500000000000000    0.7500000000000000 Yb
   0.5000000000000000    0.5000000000000000    0.5000000000000000 Yb
