Sb2 Cl10
1.0
   4.0051230000000002   -6.9370770000000004    0.0000000000000000
   4.0051230000000002    6.9370770000000004    0.0000000000000000
   0.0000000000000000    0.0000000000000000    8.4347589999999997
Sb Cl
2 10
direct
   0.6666670000000000    0.3333330000000000    0.7500000000000000 Sb
   0.3333330000000000    0.6666670000000000    0.2500000000000000 Sb
   0.8347870000000001    0.6695740000000000    0.7500000000000000 Cl
   0.1652130000000000    0.8347869999999999    0.2500000000000000 Cl
   0.3333330000000000    0.6666670000000000    0.9682100000000000 Cl
   0.6666670000000000    0.3333330000000000    0.4682100000000000 Cl
   0.6666670000000000    0.3333330000000000    0.0317900000000000 Cl
   0.3333330000000000    0.6666670000000000    0.5317900000000000 Cl
   0.1652130000000000    0.3304260000000000    0.2500000000000000 Cl
   0.8347869999999999    0.1652130000000000    0.7500000000000000 Cl
   0.3304260000000000    0.1652130000000000    0.7500000000000000 Cl
   0.6695740000000000    0.8347870000000001    0.2500000000000000 Cl
