Re3 Ir1
1.0
   3.9060769999999998    0.0000000000000000    0.0000000000000000
   0.0000000000000000    3.9060769999999998    0.0000000000000000
   0.0000000000000000    0.0000000000000000    3.9060769999999998
Re Ir
3 1
direct
   0.0000000000000000    0.5000000000000000    0.5000000000000000 Re
   0.5000000000000000    0.0000000000000000    0.5000000000000000 Re
   0.5000000000000000    0.5000000000000000    0.0000000000000000 Re
   0.0000000000000000    0.0000000000000000    0.0000000000000000 Ir
