Au4 Cl8
1.0
   7.1505289999999997    0.0000000000000000    0.0000000000000000
   0.4298800000000000    7.2915929999999998    0.0000000000000000
   2.5453139999999999    0.0841580000000000    6.8952559999999998
Au Cl
4 8
direct
   0.7272450000000001    0.5171190000000000    0.4619100000000000 Au
   0.2727550000000000    0.4828809999999999    0.5380900000000000 Au
   0.6223919999999998    0.2474500000000000    0.0928310000000000 Au
   0.3776080000000001    0.7525500000000001    0.9071689999999999 Au
   0.8222269999999999    0.2444080000000000    0.2932430000000000 Cl
   0.1777730000000000    0.7555919999999999    0.7067570000000000 Cl
   0.3320340000000000    0.2084950000000000    0.3740450000000000 Cl
   0.6679660000000001    0.7915049999999999    0.6259550000000000 Cl
   0.4277140000000000    0.2499400000000000    0.8996320000000000 Cl
   0.5722860000000001    0.7500599999999998    0.1003680000000000 Cl
   0.9035870000000001    0.2819590000000000    0.8217660000000000 Cl
   0.0964130000000000    0.7180409999999999    0.1782340000000000 Cl
