Mg2 Sn4
1.0
   5.3913310000000001   -2.9512130000000001    0.0000000000000000
   5.3913310000000001    2.9512130000000001    0.0000000000000000
   3.7758379999999998    0.0000000000000000    4.8496550000000003
Mg Sn
2 4
direct
   0.1675770000000000    0.1675770000000000    0.1675770000000000 Mg
   0.8324229999999998    0.8324229999999999    0.8324230000000000 Mg
  -0.0000000000000000    0.6697839999999999    0.3302160000000000 Sn
   0.3302160000000001    0.0000000000000000    0.6697839999999999 Sn
   0.5000000000000000    0.5000000000000000    0.4999999999999999 Sn
   0.6697840000000002    0.3302160000000000    0.0000000000000000 Sn
