K8 C8
1.0
  -3.8327740000000001    3.8327740000000001    7.3300599999999996
   3.8327740000000001   -3.8327740000000001    7.3300599999999996
   3.8327740000000001    3.8327740000000001   -7.3300599999999996
K C
8 8
direct
   0.1250000000000001    0.0667590000000000    0.4417590000000001 K
   0.8167589999999999    0.8749999999999999    0.4417590000000001 K
   0.4332410000000000    0.3749999999999999    0.5582410000000000 K
   0.6250000000000001    0.6832410000000000    0.5582410000000000 K
   0.6250000000000000    0.1832410000000001    0.0582410000000000 K
   0.9332410000000000    0.3750000000000001    0.0582410000000000 K
   0.3167590000000001    0.8749999999999998    0.9417590000000001 K
   0.1250000000000001    0.5667589999999999    0.9417590000000001 K
   0.5584790000000001    0.0584790000000001    0.6169580000000001 C
   0.8084789999999999    0.6915209999999999    0.0000000000000000 C
   0.6915209999999999    0.8084789999999999    0.0000000000000000 C
   0.4415210000000000    0.9415209999999999    0.3830420000000001 C
   0.1915210000000001    0.1915209999999999    0.8830420000000000 C
   0.9415210000000002    0.5584789999999999    0.5000000000000001 C
   0.0584790000000001    0.4415209999999999    0.5000000000000000 C
   0.3084789999999999    0.3084789999999999    0.1169580000000000 C
