Dy2 S4
1.0
   3.8569030000000000    0.0000000000000000    0.0000000000000000
   0.0000000000000000    3.8569030000000000    0.0000000000000000
   0.0000000000000000    0.0000000000000000    7.9813210000000003
Dy S
2 4
direct
   0.0000000000000000    0.5000000000000000    0.7258280000000000 Dy
   0.5000000000000000    0.0000000000000000    0.2741720000000000 Dy
   0.0000000000000000    0.5000000000000000    0.3684770000000000 S
   0.5000000000000000    0.0000000000000000    0.6315229999999999 S
   0.0000000000000000    0.0000000000000000    0.0000000000000000 S
   0.5000000000000000    0.5000000000000000    0.0000000000000000 S
