Fe3 Te1
1.0
   0.0000000000000000    3.0123650000000000    3.0123650000000000
   3.0123650000000000    0.0000000000000000    3.0123650000000000
   3.0123650000000000    3.0123650000000000    0.0000000000000000
Fe Te
3 1
direct
   0.7500000000000000    0.7500000000000001    0.7500000000000001 Fe
   0.2500000000000000    0.2500000000000000    0.2500000000000000 Fe
   0.0000000000000000    0.0000000000000000    0.0000000000000000 Fe
   0.5000000000000000    0.5000000000000000    0.5000000000000000 Te
