C6 N8
1.0
  -2.7251129999999999    2.7251129999999999    2.7251129999999999
   2.7251129999999999   -2.7251129999999999    2.7251129999999999
   2.7251129999999999    2.7251129999999999   -2.7251129999999999
C N
6 8
direct
   0.1250000000000001    0.8750000000000000    0.2500000000000001 C
   0.2500000000000000    0.1250000000000000    0.8750000000000000 C
   0.7499999999999999    0.3749999999999999    0.6250000000000000 C
   0.6250000000000000    0.7499999999999999    0.3750000000000000 C
   0.8750000000000000    0.2500000000000001    0.1250000000000000 C
   0.3750000000000000    0.6250000000000000    0.7500000000000000 C
   0.5679160000000001    0.5679160000000000    0.5679160000000000 N
   0.4999999999999999   -0.0000000000000000    0.4320840000000000 N
   0.4320840000000000    0.4999999999999999    0.0000000000000000 N
   0.0000000000000000    0.4320840000000000    0.4999999999999999 N
   0.9320840000000000    0.4999999999999999   -0.0000000000000000 N
   0.0000000000000000    0.9320840000000000    0.4999999999999999 N
   0.5000000000000000    0.0000000000000000    0.9320840000000000 N
   0.0679160000000000    0.0679160000000000    0.0679160000000000 N
