Lu10 Ir4
1.0
   3.1953459999999998    7.6315619999999997    0.0000000000000000
  -3.1953459999999998    7.6315619999999997    0.0000000000000000
   0.0000000000000000    0.8769870000000000    7.0570700000000004
Lu Ir
10 4
direct
   0.4285090000000000    0.5714910000000001    0.7500000000000001 Lu
   0.3453939999999999    0.2125370000000001    0.3180200000000000 Lu
   0.2123730000000000    0.9695190000000001    0.0801200000000000 Lu
   0.7876270000000000    0.0304810000000000    0.9198800000000000 Lu
   0.9695189999999999    0.2123730000000000    0.5801200000000000 Lu
   0.6546060000000000    0.7874630000000001    0.6819800000000001 Lu
   0.2125370000000000    0.3453940000000000    0.8180200000000001 Lu
   0.7874629999999998    0.6546060000000000    0.1819800000000000 Lu
   0.0304810000000000    0.7876270000000001    0.4198800000000000 Lu
   0.5714910000000000    0.4285090000000001    0.2500000000000000 Lu
   0.3907830000000000    0.8271290000000001    0.4271660000000000 Ir
   0.1728710000000000    0.6092170000000000    0.0728340000000000 Ir
   0.8271290000000000    0.3907830000000001    0.9271660000000002 Ir
   0.6092169999999999    0.1728710000000000    0.5728340000000001 Ir
