In40 S32
1.0
  12.7092030000000005    0.0000000000000000    0.0000000000000000
   0.0000000000000000   12.7092030000000005    0.0000000000000000
   0.0000000000000000    0.0000000000000000   12.7092030000000005
In S
40 32
direct
   0.2690820000000000    0.2690820000000000    0.2690820000000000 In
   0.2309180000000000    0.7309180000000000    0.7690820000000000 In
   0.7690820000000000    0.2309180000000000    0.7309180000000000 In
   0.7309180000000000    0.7690820000000000    0.2309180000000000 In
   0.7309180000000000    0.7309180000000000    0.7309180000000000 In
   0.7690820000000000    0.2690820000000000    0.2309180000000000 In
   0.2309180000000000    0.7690820000000000    0.2690820000000000 In
   0.2690820000000000    0.2309180000000000    0.7690820000000000 In
   0.4012300000000000    0.4012300000000000    0.4012300000000000 In
   0.0987700000000000    0.5987700000000000    0.9012300000000000 In
   0.9012300000000000    0.0987700000000000    0.5987700000000000 In
   0.5987700000000000    0.9012300000000000    0.0987700000000000 In
   0.5987700000000000    0.5987700000000000    0.5987700000000000 In
   0.9012300000000000    0.4012300000000000    0.0987700000000000 In
   0.0987700000000000    0.9012300000000000    0.4012300000000000 In
   0.4012300000000000    0.0987700000000000    0.9012300000000000 In
   0.2682970000000000    0.0267990000000000    0.0676200000000000 In
   0.0676200000000000    0.2682970000000000    0.0267990000000000 In
   0.0267990000000000    0.0676200000000000    0.2682970000000000 In
   0.4732010000000000    0.9323800000000000    0.7682970000000000 In
   0.5676200000000000    0.2317030000000000    0.9732010000000000 In
   0.9732010000000000    0.5676200000000000    0.2317030000000000 In
   0.4323800000000000    0.7317030000000000    0.5267990000000001 In
   0.9323800000000000    0.7682970000000000    0.4732010000000000 In
   0.5267990000000001    0.4323800000000000    0.7317030000000000 In
   0.7682970000000000    0.4732010000000000    0.9323800000000000 In
   0.7317030000000000    0.5267990000000001    0.4323800000000000 In
   0.2317030000000000    0.9732010000000000    0.5676200000000000 In
   0.7317030000000000    0.9732010000000000    0.9323800000000000 In
   0.9323800000000000    0.7317030000000000    0.9732010000000000 In
   0.9732010000000000    0.9323800000000000    0.7317030000000000 In
   0.5267990000000001    0.0676200000000000    0.2317030000000000 In
   0.4323800000000000    0.7682970000000000    0.0267990000000000 In
   0.0267990000000000    0.4323800000000000    0.7682970000000000 In
   0.5676200000000000    0.2682970000000000    0.4732010000000000 In
   0.0676200000000000    0.2317030000000000    0.5267990000000001 In
   0.4732010000000000    0.5676200000000000    0.2682970000000000 In
   0.2317030000000000    0.5267990000000001    0.0676200000000000 In
   0.2682970000000000    0.4732010000000000    0.5676200000000000 In
   0.7682970000000000    0.0267990000000000    0.4323800000000000 In
   0.3247080000000000    0.0738890000000000    0.2568090000000000 S
   0.2568090000000000    0.3247080000000000    0.0738890000000000 S
   0.0738890000000000    0.2568090000000000    0.3247080000000000 S
   0.4261110000000001    0.7431910000000000    0.8247080000000001 S
   0.7568090000000000    0.1752920000000000    0.9261110000000001 S
   0.9261110000000001    0.7568090000000000    0.1752920000000000 S
   0.2431910000000000    0.6752920000000000    0.5738890000000000 S
   0.7431910000000000    0.8247080000000001    0.4261110000000001 S
   0.5738890000000000    0.2431910000000000    0.6752920000000000 S
   0.8247080000000001    0.4261110000000001    0.7431910000000000 S
   0.6752920000000000    0.5738890000000000    0.2431910000000000 S
   0.1752920000000000    0.9261110000000001    0.7568090000000000 S
   0.6752920000000000    0.9261110000000001    0.7431910000000000 S
   0.7431910000000000    0.6752920000000000    0.9261110000000001 S
   0.9261110000000001    0.7431910000000000    0.6752920000000000 S
   0.5738890000000000    0.2568090000000000    0.1752920000000000 S
   0.2431910000000000    0.8247080000000001    0.0738890000000000 S
   0.0738890000000000    0.2431910000000000    0.8247080000000001 S
   0.7568090000000000    0.3247080000000000    0.4261110000000001 S
   0.2568090000000000    0.1752920000000000    0.5738890000000000 S
   0.4261110000000001    0.7568090000000000    0.3247080000000000 S
   0.1752920000000000    0.5738890000000000    0.2568090000000000 S
   0.3247080000000000    0.4261110000000001    0.7568090000000000 S
   0.8247080000000001    0.0738890000000000    0.2431910000000000 S
   0.0752940000000000    0.0752940000000000    0.0752940000000000 S
   0.4247060000000000    0.9247060000000001    0.5752940000000000 S
   0.5752940000000000    0.4247060000000000    0.9247060000000001 S
   0.9247060000000001    0.5752940000000000    0.4247060000000000 S
   0.9247060000000001    0.9247060000000001    0.9247060000000001 S
   0.5752940000000000    0.0752940000000000    0.4247060000000000 S
   0.4247060000000000    0.5752940000000000    0.0752940000000000 S
   0.0752940000000000    0.4247060000000000    0.5752940000000000 S
