Te7 As6
1.0
  -7.0193777500000003  -12.1579188699999996    0.0000000000000000
  -6.2500762700000001   11.7137624500000008    0.0000000000000000
   0.0000000000000000    0.0000000000000000 -104.1787258300000047
Te As
7 6
direct
   0.0000000000000000    0.0000000000000000    0.0000000000000000 Te
   0.0000000000000000    0.0000000000000000    0.7903102899999999 Te
   0.0000000000000000    0.0000000000000000    0.2096897100000000 Te
   0.7779693200000000    0.7684571299999999    0.0000000000000000 Te
   0.2220306800000000    0.2315428700000000    0.0000000000000000 Te
   0.0095121900000000    0.2315428700000000    0.0000000000000000 Te
   0.9904878100000000    0.7684571299999999    0.0000000000000000 Te
   0.0000000000000000    0.0000000000000000    0.5995488400000000 As
   0.0000000000000000    0.0000000000000000    0.4004511599999999 As
   0.5763310400000000    0.5886717199999999    0.0000000000000000 As
   0.4236689600000000    0.4113282800000000    0.0000000000000000 As
   0.9876593299999999    0.4113282799999999    0.0000000000000000 As
   0.0123406700000000    0.5886717200000000    0.0000000000000000 As
