Mg8 Si4
1.0
   3.0693049999999999    5.0417889999999996    0.0000000000000000
  -3.0693049999999999    5.0417889999999996    0.0000000000000000
   0.0000000000000000    0.1666030000000000    7.2645549999999997
Mg Si
8 4
direct
   0.5000000000000000    0.0000000000000000    0.5000000000000000 Mg
   0.0000000000000000    0.5000000000000000    0.5000000000000000 Mg
   0.1754780000000000    0.6669419999999999    0.8232090000000000 Mg
   0.8245220000000000    0.3330580000000001    0.1767910000000000 Mg
   0.3330580000000001    0.8245220000000000    0.1767910000000000 Mg
   0.6669419999999999    0.1754780000000000    0.8232090000000000 Mg
   0.1653040000000000    0.1653040000000000    0.8401970000000000 Mg
   0.8346959999999999    0.8346959999999999    0.1598030000000000 Mg
   0.3324250000000000    0.3324250000000000    0.1681320000000000 Si
   0.6675749999999999    0.6675749999999999    0.8318680000000002 Si
  -0.0000000000000000   -0.0000000000000000    0.5000000000000000 Si
   0.5000000000000000    0.5000000000000000    0.5000000000000000 Si
