Na12 P44
1.0
   9.9137409999999999    0.0000000000000000    0.0000000000000000
   0.0000000000000000   10.6320490000000003    0.0000000000000000
   0.0000000000000000    0.0000000000000000   12.6167730000000002
Na P
12 44
direct
   0.0000000000000000    0.7500000000000000    0.7488000000000000 Na
   0.5000000000000000    0.2500000000000000    0.7512000000000000 Na
   0.0000000000000000    0.2500000000000000    0.2512000000000000 Na
   0.5000000000000000    0.7500000000000000    0.2488000000000000 Na
   0.7531289999999999    0.0774440000000000    0.9924280000000000 Na
   0.2531290000000000    0.9225560000000002    0.5075720000000000 Na
   0.7468710000000000    0.5774440000000000    0.5075720000000000 Na
   0.2468710000000000    0.4225559999999999    0.9924280000000000 Na
   0.2468710000000000    0.9225560000000002    0.0075720000000000 Na
   0.7468710000000000    0.0774440000000000    0.4924279999999999 Na
   0.2531290000000000    0.4225559999999999    0.4924279999999999 Na
   0.7531289999999999    0.5774440000000000    0.0075720000000000 Na
   0.0000000000000000    0.7500000000000000    0.5028770000000000 P
   0.5000000000000000    0.2500000000000000    0.9971229999999999 P
   0.0000000000000000    0.2500000000000000    0.4971230000000000 P
   0.5000000000000000    0.7500000000000000    0.0028770000000000 P
   0.6913340000000000    0.2626380000000000    0.2325700000000000 P
   0.1913340000000000    0.7373620000000000    0.2674300000000000 P
   0.8086660000000000    0.7626380000000000    0.2674300000000000 P
   0.3086660000000000    0.2373620000000000    0.2325700000000000 P
   0.3086660000000000    0.7373620000000000    0.7674299999999999 P
   0.8086660000000000    0.2626380000000000    0.7325700000000001 P
   0.1913340000000000    0.2373620000000000    0.7325700000000001 P
   0.6913340000000000    0.7626380000000000    0.7674299999999999 P
   0.6034560000000000    0.0701340000000000    0.2003980000000000 P
   0.1034560000000000    0.9298660000000000    0.2996020000000000 P
   0.8965440000000000    0.5701340000000000    0.2996020000000000 P
   0.3965440000000000    0.4298660000000000    0.2003980000000000 P
   0.3965440000000000    0.9298660000000000    0.7996019999999999 P
   0.8965440000000000    0.0701340000000000    0.7003979999999999 P
   0.1034560000000000    0.4298660000000000    0.7003979999999999 P
   0.6034560000000000    0.5701340000000000    0.7996019999999999 P
   0.5831180000000000    0.3817110000000000    0.1123980000000000 P
   0.0831180000000000    0.6182890000000000    0.3876019999999999 P
   0.9168820000000000    0.8817110000000000    0.3876019999999999 P
   0.4168819999999999    0.1182890000000000    0.1123980000000000 P
   0.4168819999999999    0.6182890000000000    0.8876020000000000 P
   0.9168820000000000    0.3817110000000000    0.6123980000000000 P
   0.0831180000000000    0.1182890000000000    0.6123980000000000 P
   0.5831180000000000    0.8817110000000000    0.8876020000000000 P
   0.5865140000000000    0.3164510000000000    0.3852400000000000 P
   0.0865140000000000    0.6835490000000000    0.1147600000000000 P
   0.9134859999999999    0.8164510000000000    0.1147600000000000 P
   0.4134860000000000    0.1835490000000000    0.3852400000000000 P
   0.4134860000000000    0.6835490000000000    0.6147600000000000 P
   0.9134859999999999    0.3164510000000000    0.8852399999999999 P
   0.0865140000000000    0.1835490000000000    0.8852399999999999 P
   0.5865140000000000    0.8164510000000000    0.6147600000000000 P
   0.0231460000000000    0.9909500000000000    0.1474280000000000 P
   0.5231460000000000    0.0090500000000000    0.3525720000000000 P
   0.4768539999999999    0.4909500000000000    0.3525720000000000 P
   0.9768540000000000    0.5090500000000000    0.1474280000000000 P
   0.9768540000000000    0.0090500000000000    0.8525720000000000 P
   0.4768539999999999    0.9909500000000000    0.6474280000000000 P
   0.5231460000000000    0.5090500000000000    0.6474280000000000 P
   0.0231460000000000    0.4909500000000000    0.8525720000000000 P
