C40 Cl32
1.0
   7.7779790000000002    0.0000000000000000    0.0000000000000000
   0.0000000000000000    9.9292409999999993    0.0000000000000000
   0.0000000000000000    7.3906669999999997   18.4383720000000011
C Cl
40 32
direct
   0.8881310000000000    0.7422980000000001    0.3457810000000000 C
   0.1118690000000000    0.2577019999999999    0.6542190000000001 C
   0.3881310000000001    0.2577020000000000    0.1542190000000000 C
   0.6118690000000001    0.7422980000000003    0.8457810000000000 C
   0.8697730000000001    0.8768900000000001    0.1927410000000000 C
   0.1302270000000000    0.1231100000000000    0.8072590000000001 C
   0.3697730000000000    0.1231099999999999    0.3072590000000001 C
   0.6302270000000001    0.8768900000000001    0.6927410000000001 C
   0.8647810000000001    0.8921600000000000    0.3139960000000000 C
   0.1352190000000000    0.1078400000000000    0.6860039999999999 C
   0.3647810000000001    0.1078400000000000    0.1860040000000000 C
   0.6352190000000000    0.8921600000000000    0.8139960000000001 C
   0.3578560000000001    0.8175540000000000    0.3765560000000000 C
   0.6421440000000002    0.1824459999999999    0.6234440000000000 C
   0.8578560000000000    0.1824460000000001    0.1234440000000000 C
   0.1421440000000000    0.8175540000000000    0.8765560000000000 C
   0.3173730000000001    0.9056770000000000    0.4163620000000001 C
   0.6826270000000001    0.0943230000000000    0.5836380000000000 C
   0.8173730000000000    0.0943230000000000    0.0836380000000000 C
   0.1826270000000000    0.9056770000000000    0.9163620000000001 C
   0.9257630000000000    0.6610760000000002    0.3022530000000000 C
   0.0742370000000000    0.3389240000000000    0.6977470000000000 C
   0.4257630000000001    0.3389240000000000    0.1977470000000000 C
   0.5742370000000001    0.6610760000000000    0.8022530000000001 C
   0.8213330000000001    0.9437340000000002    0.1178220000000000 C
   0.1786670000000000    0.0562660000000000    0.8821780000000001 C
   0.3213330000000000    0.0562660000000000    0.3821780000000000 C
   0.6786670000000000    0.9437339999999999    0.6178220000000001 C
   0.9182220000000000    0.7270529999999999    0.2271490000000000 C
   0.0817780000000000    0.2729470000000001    0.7728510000000000 C
   0.4182220000000000    0.2729469999999999    0.2728510000000000 C
   0.5817780000000001    0.7270529999999998    0.7271490000000002 C
   0.3785580000000001    0.8789340000000000    0.3014830000000000 C
   0.6214420000000000    0.1210660000000000    0.6985170000000001 C
   0.8785580000000001    0.1210660000000000    0.1985170000000000 C
   0.1214420000000000    0.8789340000000001    0.8014829999999999 C
   0.8708500000000000    0.9660499999999999    0.2363940000000000 C
   0.1291500000000000    0.0339500000000000    0.7636060000000000 C
   0.3708500000000000    0.0339500000000000    0.2636060000000000 C
   0.6291500000000001    0.9660499999999999    0.7363940000000000 C
   0.8769600000000001    0.3665620000000000    0.0781360000000000 Cl
   0.1230400000000000    0.6334379999999998    0.9218640000000001 Cl
   0.3769600000000000    0.6334379999999999    0.4218640000000000 Cl
   0.6230400000000000    0.3665620000000001    0.5781360000000000 Cl
   0.9830910000000002    0.4817870000000000    0.3431040000000000 Cl
   0.0169090000000000    0.5182129999999999    0.6568960000000000 Cl
   0.4830910000000000    0.5182129999999999    0.1568960000000000 Cl
   0.5169090000000000    0.4817870000000001    0.8431040000000000 Cl
   0.7478640000000000    0.8440500000000000    0.0689500000000000 Cl
   0.2521360000000000    0.1559500000000001    0.9310500000000000 Cl
   0.2478640000000000    0.1559500000000000    0.4310500000000000 Cl
   0.7521360000000001    0.8440500000000000    0.5689500000000000 Cl
   0.4262110000000001    0.7608180000000000    0.2589740000000000 Cl
   0.5737890000000001    0.2391819999999999    0.7410260000000000 Cl
   0.9262110000000001    0.2391820000000000    0.2410260000000000 Cl
   0.0737890000000000    0.7608180000000000    0.7589740000000000 Cl
   0.8141630000000000    0.9789570000000000    0.3720180000000000 Cl
   0.1858370000000000    0.0210430000000000    0.6279820000000000 Cl
   0.3141630000000001    0.0210430000000000    0.1279820000000000 Cl
   0.6858370000000001    0.9789570000000001    0.8720180000000000 Cl
   0.9898830000000000    0.6279990000000000    0.1777650000000000 Cl
   0.0101170000000000    0.3720009999999999    0.8222350000000002 Cl
   0.4898830000000001    0.3720010000000001    0.3222350000000000 Cl
   0.5101170000000000    0.6279990000000001    0.6777650000000000 Cl
   0.2348880000000000    0.8255470000000001    0.0064020000000000 Cl
   0.7651120000000001    0.1744530000000000    0.9935980000000000 Cl
   0.7348880000000000    0.1744530000000000    0.4935980000000000 Cl
   0.2651120000000000    0.8255470000000001    0.5064020000000000 Cl
   0.8768040000000001    0.6540020000000001    0.4381610000000000 Cl
   0.1231960000000000    0.3459980000000000    0.5618390000000000 Cl
   0.3768040000000000    0.3459980000000001    0.0618390000000000 Cl
   0.6231960000000000    0.6540020000000003    0.9381610000000000 Cl
