Sn4 Bi4
1.0
   3.3030020000000002   -5.6129530000000001    0.0000000000000000
   3.3030020000000002    5.6129530000000001    0.0000000000000000
   0.0000000000000000    0.0000000000000000    6.5269459999999997
Sn Bi
4 4
direct
   0.3407120000000000    0.3407120000000000    0.8227570000000000 Sn
   0.6592880000000000    0.6592880000000000    0.1772430000000000 Sn
   0.8407120000000001    0.8407120000000001    0.6772430000000000 Sn
   0.1592880000000000    0.1592880000000000    0.3227570000000001 Sn
   0.7906069999999999    0.2093930000000000    0.0000000000000000 Bi
   0.2906069999999999    0.7093930000000001    0.5000000000000000 Bi
   0.7093930000000001    0.2906069999999999    0.5000000000000000 Bi
   0.2093930000000000    0.7906069999999999    0.0000000000000000 Bi
