Rh4 O6
1.0
   4.9315360000000004   -2.6050749999999998    0.0000000000000000
   4.9315360000000004    2.6050749999999998    0.0000000000000000
   3.5554100000000002    0.0000000000000000    4.2971529999999998
Rh O
4 6
direct
   0.8494349999999999    0.8494349999999999    0.8494350000000001 Rh
   0.6505649999999998    0.6505649999999998    0.6505649999999999 Rh
   0.1505650000000000    0.1505650000000000    0.1505650000000000 Rh
   0.3494349999999999    0.3494349999999999    0.3494350000000000 Rh
   0.4504030000000001    0.0495970000000000    0.7500000000000000 O
   0.0495969999999999    0.7499999999999999    0.4504030000000000 O
   0.7500000000000000    0.4504030000000000    0.0495970000000000 O
   0.5495970000000000    0.9504029999999999    0.2500000000000000 O
   0.9504030000000000    0.2500000000000001    0.5495970000000000 O
   0.2500000000000001    0.5495970000000000    0.9504029999999999 O
