Ca5 P8
1.0
   5.9602130000000004    3.4660549999999999    0.0000000000000000
  -5.9602130000000004    3.4660549999999999    0.0000000000000000
   0.0000000000000000    2.3449390000000001    7.1415899999999999
Ca P
5 8
direct
   0.5000000000000001    0.5000000000000001    0.4999999999999999 Ca
   0.8247390000000000    0.1752610000000001    0.4999999999999999 Ca
   0.1752610000000001    0.8247390000000001    0.4999999999999999 Ca
   0.3346500000000001    0.6653500000000001    0.0000000000000000 Ca
   0.6653500000000000    0.3346500000000000    0.0000000000000000 Ca
   0.7777320000000000    0.7777320000000000    0.7580249999999998 P
   0.2222680000000000    0.2222680000000000    0.2419750000000000 P
   0.0788270000000001    0.3845920000000000    0.7602469999999999 P
   0.6154080000000002    0.9211730000000004    0.2397530000000000 P
   0.9211730000000001    0.6154080000000002    0.2397530000000000 P
   0.3845920000000000    0.0788270000000001    0.7602469999999999 P
   0.0524190000000001    0.0524190000000001    0.8365239999999999 P
   0.9475810000000001    0.9475810000000001    0.1634760000000000 P
