Mg5 In1
1.0
   5.5824309999999997   -2.7266789999999999    0.0000000000000000
   5.5824309999999997    2.7266789999999999    0.0000000000000000
   4.2506139999999997    0.0000000000000000    4.5310699999999997
Mg In
5 1
direct
   0.4999999999999999    0.1666190000000000    0.8333810000000000 Mg
   0.1666189999999999    0.8333810000000000    0.5000000000000000 Mg
   0.8333810000000001    0.4999999999999999    0.1666190000000000 Mg
   0.3329210000000001    0.3329210000000001    0.3329210000000000 Mg
   0.6670790000000000    0.6670790000000000    0.6670790000000000 Mg
   0.0000000000000000    0.0000000000000000    0.0000000000000000 In
