Zr2 Br2
1.0
   1.7744750000000000    3.0499849999999999    0.0000000000000000
  -1.7744750000000000    3.0499849999999999    0.0000000000000000
   0.0000000000000000    2.6948460000000001    9.7478330000000000
Zr Br
2 2
direct
   0.2795549999999999    0.2795549999999999    0.6205130000000000 Zr
   0.7204449999999999    0.7204449999999999    0.3794870000000000 Zr
   0.8584519999999999    0.8584519999999999    0.8164160000000000 Br
   0.1415480000000000    0.1415480000000000    0.1835840000000000 Br
