Mn1 Hg3
1.0
   4.4178499999999996    0.0000000000000000    0.0000000000000000
   0.0000000000000000    4.4178499999999996    0.0000000000000000
   0.0000000000000000    0.0000000000000000    4.4178499999999996
Mn Hg
1 3
direct
   0.0000000000000000    0.0000000000000000    0.0000000000000000 Mn
   0.5000000000000000    0.0000000000000000    0.5000000000000000 Hg
   0.0000000000000000    0.5000000000000000    0.5000000000000000 Hg
   0.5000000000000000    0.5000000000000000    0.0000000000000000 Hg
