Yb12 S18
1.0
   4.0858910000000002    0.0000000000000000    0.0000000000000000
   0.0000000000000000   11.4780859999999993    0.0000000000000000
   0.0000000000000000    4.4887969999999999   15.0811250000000001
Yb S
12 18
direct
   0.7500000000000000    0.5123070000000000    0.8875400000000001 Yb
   0.2500000000000000    0.4876930000000001    0.1124600000000000 Yb
   0.7500000000000000    0.5064850000000000    0.6234750000000000 Yb
   0.2500000000000000    0.4935149999999999    0.3765250000000000 Yb
   0.7500000000000000    0.0890910000000000    0.3262650000000000 Yb
   0.2500000000000000    0.9109090000000000    0.6737350000000001 Yb
   0.7500000000000000    0.7979710000000001    0.2441030000000000 Yb
   0.2500000000000000    0.2020290000000000    0.7558970000000000 Yb
   0.7500000000000000    0.2103760000000000    0.5462510000000002 Yb
   0.2500000000000000    0.7896239999999999    0.4537490000000001 Yb
   0.7500000000000000    0.2192350000000000    0.9874309999999999 Yb
   0.2500000000000000    0.7807650000000002    0.0125690000000000 Yb
   0.7500000000000000    0.9738630000000000    0.0296680000000000 S
   0.2500000000000000    0.0261369999999999    0.9703320000000001 S
   0.7500000000000000    0.6282380000000000    0.0165750000000000 S
   0.2500000000000000    0.3717620000000000    0.9834250000000001 S
   0.7500000000000000    0.3200520000000000    0.3680360000000000 S
   0.2500000000000000    0.6799480000000000    0.6319640000000000 S
   0.7500000000000000    0.7132670000000001    0.7465910000000000 S
   0.2500000000000000    0.2867330000000000    0.2534090000000000 S
   0.7500000000000000    0.2794480000000000    0.1701270000000000 S
   0.2500000000000000    0.7205519999999999    0.8298730000000001 S
   0.7500000000000000    0.9594500000000001    0.5112350000000000 S
   0.2500000000000000    0.0405500000000000    0.4887650000000001 S
   0.2500000000000000    0.9466960000000001    0.2862340000000000 S
   0.7500000000000000    0.0533039999999999    0.7137660000000001 S
   0.2500000000000000    0.3579860000000000    0.5756170000000002 S
   0.7500000000000000    0.6420140000000001    0.4243830000000000 S
   0.2500000000000000    0.6644810000000001    0.2022040000000000 S
   0.7500000000000000    0.3355190000000001    0.7977959999999999 S
