Si72 O144
1.0
  -7.2339168400000000  -12.5295118100000007    0.0000333300000000
  -7.2338512899999996   12.5294739699999997   -0.0000166600000000
   0.0000291700000000    0.0000505300000000  -25.3540515000000006
Si O
72 144
direct
   0.6666734700000000    0.3333245800000001    0.0629013900000000 Si
   0.3333488800000001    0.6666754200000000    0.0629013900000000 Si
   0.3333348900000002    0.6666751500000001    0.9370990000000001 Si
   0.6666597400000002    0.3333248500000001    0.9370990000000001 Si
   0.4687515800000001    0.2343742400000001    0.1358009300000000 Si
   0.7656269800000002    0.5312485000000001    0.1358005900000000 Si
   0.7656349300000002    0.2343666200000001    0.1358000300000000 Si
   0.2343773400000001    0.7656257600000002    0.1358009300000000 Si
   0.2343784800000002    0.4687515000000001    0.1358005900000000 Si
   0.5312683100000001    0.7656333800000003    0.1358000300000000 Si
   0.5312518400000003    0.7656280500000001    0.8641959700000000 Si
   0.2343728700000001    0.4687511500000001    0.8641994200000002 Si
   0.2343668800000002    0.7656317000000001    0.8642030800000001 Si
   0.7656237900000001    0.2343719500000001    0.8641959700000000 Si
   0.7656217200000001    0.5312488500000001    0.8641994200000002 Si
   0.4687351800000001    0.2343683000000001    0.8642030800000001 Si
   0.3902056400000001    0.0000000000000000    0.1608107600000000 Si
   0.6097974600000001    0.6097954799999999    0.1608113000000000 Si
   0.0000019800000000    0.3902045200000001    0.1608113000000000 Si
   0.6097974400000002    1.0000000000000000    0.1608115100000000 Si
   0.3902052900000001    0.3902043600000001    0.1608108900000000 Si
   0.0000009200000001    0.6097956400000001    0.1608108900000000 Si
   0.6097938700000003    1.0000000000000002    0.8391883700000000 Si
   0.3902024900000001    0.3902036900000000    0.8391888500000000 Si
  -0.0000011999999999    0.6097963100000001    0.8391888500000000 Si
   0.3902022800000001    0.0000000000000000    0.8391891800000000 Si
   0.6097953300000001    0.6097952900000001    0.8391883500000001 Si
   0.0000000500000001    0.3902047100000001    0.8391883500000000 Si
   0.6666755100000001    0.3333241300000002    0.2107630200000000 Si
   0.3333513700000001    0.6666758700000001    0.2107630200000000 Si
   0.3333240700000001    0.6666753600000002    0.7892366400000000 Si
   0.6666487100000003    0.3333246400000002    0.7892366399999999 Si
   0.6666745000000002    0.3333245300000000    0.3393703800000000 Si
   0.3333499700000002    0.6666754700000002    0.3393703800000000 Si
   0.3333252400000002    0.6666755500000000    0.6606293900000000 Si
   0.6666496900000000    0.3333244500000000    0.6606293900000001 Si
   0.3901648600000001    0.0000000000000000    0.2876114800000000 Si
   0.6098369800000001    0.6098375900000002    0.2876115100000000 Si
  -0.0000006099999999    0.3901624100000001    0.2876115100000000 Si
   0.6098377000000003    1.0000000000000002    0.2876114000000000 Si
   0.3901640400000001    0.3901640300000001    0.2876111800000000 Si
   0.0000000100000001    0.6098359700000001    0.2876111800000000 Si
   0.6098350300000002    1.0000000000000002    0.7123884099999999 Si
   0.3901631500000001    0.3901621300000000    0.7123884299999999 Si
   0.0000010100000000    0.6098378700000000    0.7123884300000000 Si
   0.3901622400000001    0.0000000000000001    0.7123890200000002 Si
   0.6098361700000001    0.6098360000000000    0.7123882599999999 Si
   0.0000001600000001    0.3901640000000001    0.7123882600000000 Si
   0.4212782200000001    0.2106385800000001    0.3458378700000000 Si
   0.7893621000000001    0.5787227600000001    0.3458373600000000 Si
   0.7893653300000002    0.2106349400000001    0.3458382699999999 Si
   0.2106396400000002    0.7893614200000002    0.3458378700000000 Si
   0.2106393400000000    0.4212772400000001    0.3458373600000000 Si
   0.5787303800000002    0.7893650600000002    0.3458382699999999 Si
   0.5787216100000002    0.7893613200000001    0.6541619000000001 Si
   0.2106378600000001    0.4212773300000001    0.6541627400000000 Si
   0.2106350700000002    0.7893649800000000    0.6541618400000000 Si
   0.7893602900000000    0.2106386800000000    0.6541618999999999 Si
   0.7893605300000002    0.5787226700000000    0.6541627400000001 Si
   0.4212700900000001    0.2106350200000001    0.6541618400000000 Si
   0.2544024000000000    0.1272017300000000    0.4399801200000000 Si
   0.8727991200000003    0.7455975200000001    0.4399808800000000 Si
   0.8728007700000001    0.1272009600000001    0.4399826300000000 Si
   0.1272006700000002    0.8727982700000002    0.4399801200000000 Si
   0.1272015900000001    0.2544024800000000    0.4399808800000001 Si
   0.7455998100000002    0.8727990400000001    0.4399826300000000 Si
   0.7455980800000002    0.8727987299999999    0.5600197000000000 Si
   0.1272004300000001    0.2544024200000001    0.5600192700000000 Si
   0.1271991500000001    0.8727985800000001    0.5600175700000000 Si
   0.8727993500000001    0.1272012700000000    0.5600197000000000 Si
   0.8727980100000002    0.7455975800000002    0.5600192700000000 Si
   0.2544005700000000    0.1272014200000000    0.5600175700000000 Si
   0.6666778700000002    0.3333118600000001   -0.0000001900000000 O
   0.3333660100000002    0.6666881400000001   -0.0000001900000000 O
   0.5434386200000000    0.2717139600000000    0.0832035600000000 O
   0.7282861100000002    0.4565614400000001    0.0832026400000000 O
   0.7282895500000002    0.2717111600000001    0.0832023400000000 O
   0.2717246600000002    0.7282860400000000    0.0832035600000000 O
   0.2717246800000001    0.5434385600000000    0.0832026400000000 O
   0.4565783900000003    0.7282888400000004    0.0832023400000000 O
   0.4565655900000001    0.7282886200000002    0.9167919399999999 O
   0.2717125700000002    0.5434385900000002    0.9167971300000000 O
   0.2717121300000001    0.7282863400000001    0.9168019500000001 O
   0.7282769700000001    0.2717113800000001    0.9167919400000000 O
   0.7282739900000000    0.4565614100000001    0.9167971300000000 O
   0.5434257900000000    0.2717136600000001    0.9168019500000001 O
   0.3938270800000001    0.1052450200000000    0.1355360600000000 O
   0.7114192200000001    0.6061677500000001    0.1355367400000000 O
   0.8947652100000001    0.2885791100000001    0.1355354600000000 O
   0.2885820600000001    0.8947549800000002    0.1355360600000000 O
   0.1052514700000000    0.3938322500000001    0.1355367400000000 O
   0.6061861000000002    0.7114208900000000    0.1355354600000000 O
   0.6061837400000003    0.8947610600000002    0.1355353400000000 O
   0.2885816700000001    0.3938263900000001    0.1355359700000000 O
   0.1052489400000001    0.7114177300000001    0.1355368200000000 O
   0.7114226700000001    0.1052389400000000    0.1355353400000000 O
   0.8947552900000000    0.6061736100000000    0.1355359700000000 O
   0.3938312100000001    0.2885822700000001    0.1355368200000000 O
   0.6061739200000003    0.8947550900000001    0.8644630500000000 O
   0.2885809600000001    0.3938330000000000    0.8644639400000000 O
   0.1052361400000000    0.7114197900000000    0.8644655400000000 O
   0.7114188200000001    0.1052449100000001    0.8644630499999999 O
   0.8947479600000002    0.6061670000000001    0.8644639400000000 O
   0.3938163500000000    0.2885802100000000    0.8644655399999999 O
   0.3938191800000000    0.1052407500000000    0.8644655999999999 O
   0.7114182100000002    0.6061737800000002    0.8644639400000000 O
   0.8947520400000001    0.2885819400000001    0.8644628399999998 O
   0.2885784300000001    0.8947592500000001    0.8644655999999999 O
   0.1052444300000001    0.3938262200000001    0.8644639400000000 O
   0.6061701000000003    0.7114180600000002    0.8644628399999998 O
   0.5437650700000001    0.2718762100000001    0.1890938900000000 O
   0.7281240600000001    0.4562356600000000    0.1890935400000000 O
   0.7281271400000001    0.2718726700000001    0.1890920700000000 O
   0.2718888600000001    0.7281237900000003    0.1890938900000000 O
   0.2718883900000000    0.5437643400000001    0.1890935400000000 O
   0.4562544700000002    0.7281273300000001    0.1890920700000000 O
   0.4562363300000002    0.7281244700000001    0.8109041299999999 O
   0.2718767500000002    0.5437645800000001    0.8109062399999999 O
   0.2718733100000001    0.7281264800000001    0.8109095300000001 O
   0.7281118600000002    0.2718755300000000    0.8109041299999999 O
   0.7281121700000002    0.4562354200000002    0.8109062400000000 O
   0.5437468200000001    0.2718735200000001    0.8109095300000000 O
   0.6666889300000002    0.3333108600000001    0.2745662900000000 O
   0.3333780700000001    0.6666891400000000    0.2745662900000000 O
   0.3333101300000001    0.6666891700000002    0.7254343800000000 O
   0.6666209600000002    0.3333108300000001    0.7254343800000002 O
   0.3764467900000000    0.0000000000000000    0.2241593000000000 O
   0.6235552000000002    0.6235549800000001    0.2241590800000000 O
   0.0000002200000001    0.3764450200000000    0.2241590800000000 O
   0.6235542100000001    1.0000000000000002    0.2241595800000000 O
   0.3764451000000001    0.3764449600000001    0.2241593200000000 O
   0.0000001400000000    0.6235550399999999    0.2241593200000000 O
   0.6235534600000001    1.0000000000000000    0.7758403300000001 O
   0.3764451500000001    0.3764451100000001    0.7758412400000000 O
   0.0000000400000001    0.6235548900000000    0.7758412400000000 O
   0.3764455100000000    0.0000000000000000    0.7758407800000001 O
   0.6235541400000002    0.6235543000000002    0.7758411999999999 O
   0.9999998400000002    0.3764457000000001    0.7758412000000000 O
   0.4999991400000001    0.0000000000000000    0.1460430800000000 O
   0.4999992900000002    0.5000002300000002    0.1460427400000000 O
   0.9999990600000002    0.4999997700000002    0.1460427400000000 O
   0.5000021700000001    1.0000000000000000    0.8539569400000000 O
   0.5000009200000001    0.4999999700000001    0.8539572399999998 O
   0.0000009500000001    0.5000000300000002    0.8539572399999998 O
   0.4999984500000000   -0.0000000000000000    0.3020972800000000 O
   0.4999988400000001    0.4999996200000000    0.3020973000000000 O
   0.9999992200000003    0.5000003800000002    0.3020973000000000 O
   0.5000011200000003    1.0000000000000002    0.6979034200000001 O
   0.5000009700000001    0.5000001600000001    0.6979028100000000 O
   0.0000008100000001    0.4999998400000000    0.6979028100000001 O
   0.3936083100000001    0.1053670400000000    0.3114986900000000 O
   0.7117598500000001    0.6063902700000001    0.3114992400000000 O
   0.8946340200000000    0.2882394900000000    0.3114982100000000 O
   0.2882412700000003    0.8946329600000003    0.3114986900000000 O
   0.1053695800000001    0.3936097300000001    0.3114992400000000 O
   0.6063945300000002    0.7117605100000000    0.3114982100000000 O
   0.6063937100000003    0.8946329000000002    0.3114983200000000 O
   0.2882406100000001    0.3936071900000001    0.3114979900000000 O
   0.1053686300000001    0.7117582500000000    0.3114990000000000 O
   0.7117608100000001    0.1053671000000000    0.3114983200000000 O
   0.8946334200000001    0.6063928100000002    0.3114979900000000 O
   0.3936103800000000    0.2882417500000001    0.3114990000000000 O
   0.6063917000000002    0.8946332400000001    0.6885013999999999 O
   0.2882402900000001    0.3936099400000001    0.6885005900000001 O
   0.1053652700000001    0.7117599300000000    0.6885020300000000 O
   0.7117584700000001    0.1053667600000001    0.6885013999999999 O
   0.8946303500000001    0.6063900600000000    0.6885005900000000 O
   0.3936053500000001    0.2882400700000001    0.6885020300000000 O
   0.3936061100000001    0.1053667100000001    0.6885016700000000 O
   0.7117596700000000    0.6063928500000000    0.6885013900000000 O
   0.8946315500000002    0.2882419000000001    0.6885009600000001 O
   0.2882394000000001    0.8946332900000001    0.6885016700000000 O
   0.1053668200000001    0.3936071500000000    0.6885013900000000 O
   0.6063896400000002    0.7117581000000001    0.6885009600000001 O
   0.5463360300000001    0.2731637000000001    0.3622282400000000 O
   0.7268369200000001    0.4536645600000000    0.3622282999999999 O
   0.7268374200000001    0.2731628800000000    0.3622400100000001 O
   0.2731723300000001    0.7268363000000000    0.3622282400000000 O
   0.2731723700000001    0.5463354400000001    0.3622283000000000 O
   0.4536745500000002    0.7268371200000001    0.3622400100000001 O
   0.4536649100000001    0.7268366700000001    0.6377718000000000 O
   0.2731628800000001    0.5463347500000001    0.6377716600000000 O
   0.2731628400000001    0.7268372600000002    0.6377600700000000 O
   0.7268282400000002    0.2731633300000000    0.6377718000000000 O
   0.7268281300000001    0.4536652500000001    0.6377716600000000 O
   0.5463255700000001    0.2731627400000001    0.6377600700000000 O
   0.3548082300000001    0.1774054000000000    0.4003064200000001 O
   0.8225963800000002    0.6451924500000003    0.4003061300000000 O
   0.8226014400000001    0.1773989100000001    0.4003069800000000 O
   0.1774028300000002    0.8225946000000001    0.4003064200000001 O
   0.1774039300000000    0.3548075500000000    0.4003061299999999 O
   0.6452025300000003    0.8226010900000001    0.4003069800000000 O
   0.6451917100000001    0.8225950300000000    0.5996940800000000 O
   0.1774042600000001    0.3548076100000001    0.5996939900000000 O
   0.1773981600000000    0.8226013100000001    0.5996930700000001 O
   0.8225966800000002    0.1774049700000001    0.5996940800000000 O
   0.8225966500000000    0.6451923900000001    0.5996939900000000 O
   0.3547968500000001    0.1773986900000000    0.5996930700000001 O
   0.1812787000000000    1.0000000000000002    0.4297445100000000 O
   0.8187234900000003    0.8187207300000002    0.4297441600000000 O
   0.0000027600000000    0.1812792700000000    0.4297441600000000 O
   0.8187237100000001    0.0000000000000000    0.4297440800000000 O
   0.1812790300000001    0.1812783400000000    0.4297440500000000 O
   0.0000006900000000    0.8187216600000000    0.4297440500000000 O
   0.8187214600000002    0.0000000000000001    0.5702560500000000 O
   0.1812768500000000    0.1812790700000000    0.5702553500000000 O
   0.9999977900000001    0.8187209300000001    0.5702553500000000 O
   0.1812764100000001    0.9999999999999999    0.5702550700000000 O
   0.8187213000000002    0.8187215000000002    0.5702555700000002 O
  -0.0000002000000000    0.1812785000000000    0.5702555700000000 O
   0.3010972100000001    0.1505493300000001    0.4999994100000000 O
   0.8494510400000003    0.6989024100000002    0.5000000400000000 O
   0.8494521300000002    0.1505494300000001    0.5000005199999999 O
   0.1505478700000001    0.8494506700000001    0.4999994100000000 O
   0.1505486300000000    0.3010975900000000    0.5000000400000000 O
   0.6989027000000001    0.8494505700000000    0.5000005199999999 O
