Mg12 Si10
1.0
   4.0001379999999997    0.0000000000000000    0.0000000000000000
   0.0000000000000000    6.7833350000000001    0.0000000000000000
   0.0000000000000000    1.6072930000000001   15.4056730000000002
Mg Si
12 10
direct
   0.5000000000000000    0.9777640000000000    0.0282220000000000 Mg
   0.0000000000000000    0.4358740000000000    0.4933600000000000 Mg
   0.5000000000000000    0.6543130000000001    0.3502200000000000 Mg
   0.5000000000000000    0.2369280000000001    0.6396169999999999 Mg
   0.5000000000000000    0.5595210000000000    0.7990559999999999 Mg
   0.0000000000000000    0.7057350000000000    0.1602380000000000 Mg
   0.5000000000000000    0.1419070000000000    0.4248450000000000 Mg
   0.5000000000000000    0.7389300000000000    0.5795760000000000 Mg
   0.0000000000000000    0.7764980000000000    0.9161529999999999 Mg
   0.0000000000000000    0.2169520000000000    0.1280190000000000 Mg
   0.5000000000000000    0.5137170000000000    0.0299800000000000 Mg
   0.0000000000000000    0.2816950000000000    0.9328599999999999 Mg
   0.0000000000000000    0.0420270000000000    0.5617329999999999 Si
   0.0000000000000000    0.8298670000000000    0.4485430000000000 Si
   0.5000000000000000    0.9795969999999999    0.2143770000000000 Si
   0.5000000000000000    0.9977280000000001    0.8091280000000000 Si
   0.0000000000000000    0.5257160000000000    0.6698020000000000 Si
   0.0000000000000000    0.3707750000000000    0.3100419999999999 Si
   0.5000000000000000    0.4008830000000000    0.2119820000000000 Si
   0.0000000000000000    0.8697210000000000    0.7217789999999999 Si
   0.0000000000000000    0.2359180000000000    0.7697430000000000 Si
   0.0000000000000000    0.0043140000000000    0.3043040000000000 Si
