Sb4 Pd8
1.0
   1.7317590000000000   -8.8799109999999999    0.0000000000000000
   1.7317590000000000    8.8799109999999999    0.0000000000000000
   0.0000000000000000    0.0000000000000000    7.0351850000000002
Sb Pd
4 8
direct
   0.5569290000000000    0.4430710000000000    0.8028690000000001 Sb
   0.4430710000000000    0.5569290000000000    0.3028690000000000 Sb
   0.2057140000000000    0.7942860000000000    0.2717670000000000 Sb
   0.7942860000000000    0.2057140000000000    0.7717670000000000 Sb
   0.9615849999999999    0.0384150000000001    0.9969980000000001 Pd
   0.0384150000000001    0.9615849999999999    0.4969980000000001 Pd
   0.1749650000000000    0.8250350000000000    0.8938130000000000 Pd
   0.8250350000000000    0.1749650000000000    0.3938130000000001 Pd
   0.3302090000000000    0.6697910000000000    0.0464420000000000 Pd
   0.6697910000000000    0.3302090000000000    0.5464420000000000 Pd
   0.5869560000000000    0.4130440000000000    0.1738100000000000 Pd
   0.4130440000000000    0.5869560000000000    0.6738100000000000 Pd
