Bi24 Te21
1.0
   2.2508140000000001   -3.8985240000000001    0.0000000000000000
   2.2508140000000001    3.8985240000000001    0.0000000000000000
   0.0000000000000000    0.0000000000000000   92.5533360000000016
Bi Te
24 21
direct
   0.3333330000000000    0.6666670000000000    0.3519269999999999 Bi
   0.6666670000000000    0.3333330000000000    0.6480730000000000 Bi
   0.0000000000000000    0.0000000000000000    0.0678110000000000 Bi
   0.0000000000000000    0.0000000000000000    0.9321890000000002 Bi
   0.3333330000000000    0.6666670000000000    0.8222570000000000 Bi
   0.6666670000000000    0.3333330000000000    0.1777430000000000 Bi
   0.3333330000000000    0.6666670000000000    0.0215450000000000 Bi
   0.6666670000000000    0.3333330000000000    0.9784550000000000 Bi
   0.0000000000000000    0.0000000000000000    0.3996110000000000 Bi
   0.0000000000000000    0.0000000000000000    0.6003890000000000 Bi
   0.0000000000000000    0.0000000000000000    0.3338450000000000 Bi
   0.0000000000000000    0.0000000000000000    0.6661550000000001 Bi
   0.3333330000000000    0.6666670000000000    0.7564470000000000 Bi
   0.6666670000000000    0.3333330000000000    0.2435530000000000 Bi
   0.0000000000000000    0.0000000000000000    0.1341130000000000 Bi
   0.0000000000000000    0.0000000000000000    0.8658870000000000 Bi
   0.3333330000000000    0.6666670000000000    0.0858810000000000 Bi
   0.6666670000000000    0.3333330000000000    0.9141190000000000 Bi
   0.3333330000000000    0.6666670000000000    0.2868510000000000 Bi
   0.6666670000000000    0.3333330000000000    0.7131490000000000 Bi
   0.3333330000000000    0.6666670000000000    0.4908990000000000 Bi
   0.6666670000000000    0.3333330000000000    0.5091010000000000 Bi
   0.3333330000000000    0.6666670000000000    0.5562700000000000 Bi
   0.6666670000000000    0.3333330000000000    0.4437300000000000 Bi
   0.3333330000000000    0.6666670000000000    0.4216770000000000 Te
   0.6666670000000000    0.3333330000000000    0.5783230000000000 Te
   0.3333330000000000    0.6666670000000000    0.1558710000000000 Te
   0.6666670000000000    0.3333330000000000    0.8441290000000001 Te
   0.0000000000000000    0.0000000000000000    0.1960250000000000 Te
   0.0000000000000000    0.0000000000000000    0.8039750000000000 Te
   0.3333330000000000    0.6666670000000000    0.2251390000000000 Te
   0.6666670000000000    0.3333330000000000    0.7748610000000000 Te
   0.3333330000000000    0.6666670000000000    0.6945480000000001 Te
   0.6666670000000000    0.3333330000000000    0.3054520000000000 Te
   0.3333330000000000    0.6666670000000000    0.9600490000000000 Te
   0.6666670000000000    0.3333330000000000    0.0399510000000000 Te
   0.3333330000000000    0.6666670000000000    0.8844450000000000 Te
   0.6666670000000000    0.3333330000000000    0.1155550000000000 Te
   0.0000000000000000    0.0000000000000000    0.4622760000000000 Te
   0.0000000000000000    0.0000000000000000    0.5377240000000000 Te
   0.0000000000000000    0.0000000000000000    0.2652770000000000 Te
   0.0000000000000000    0.0000000000000000    0.7347230000000000 Te
   0.0000000000000000    0.0000000000000000    0.0000000000000000 Te
   0.3333330000000000    0.6666670000000000    0.6189640000000000 Te
   0.6666670000000000    0.3333330000000000    0.3810360000000000 Te
