Na3 Pr1
1.0
  -2.5476070000000002    2.5476070000000002    5.5276259999999997
   2.5476070000000002   -2.5476070000000002    5.5276259999999997
   2.5476070000000002    2.5476070000000002   -5.5276259999999997
Na Pr
3 1
direct
   0.7500000000000000    0.2500000000000000    0.5000000000000000 Na
   0.2500000000000001    0.7500000000000000    0.5000000000000000 Na
   0.5000000000000000    0.5000000000000000    0.0000000000000000 Na
   0.0000000000000000    0.0000000000000000    0.0000000000000000 Pr
