Re1 As3
1.0
   0.0000000000000000    3.2074850000000001    3.2074850000000001
   3.2074850000000001    0.0000000000000000    3.2074850000000001
   3.2074850000000001    3.2074850000000001    0.0000000000000000
Re As
1 3
direct
   0.0000000000000000    0.0000000000000000    0.0000000000000000 Re
   0.7500000000000000    0.7500000000000000    0.7500000000000000 As
   0.2500000000000000    0.2500000000000000    0.2500000000000000 As
   0.5000000000000000    0.5000000000000000    0.5000000000000000 As
