Mg5 Sn1
1.0
   5.4830660000000000   -2.7654030000000001    0.0000000000000000
   5.4830660000000000    2.7654030000000001    0.0000000000000000
   4.0883250000000002    0.0000000000000000    4.5822550000000000
Mg Sn
5 1
direct
   0.0000000000000000    0.6668800000000000    0.3331200000000000 Mg
   0.8331030000000000    0.8331030000000001    0.8331030000000000 Mg
   0.6668800000000001    0.3331200000000000    0.0000000000000000 Mg
   0.3331200000000000   -0.0000000000000000    0.6668800000000000 Mg
   0.1668970000000000    0.1668970000000000    0.1668970000000000 Mg
   0.5000000000000000    0.5000000000000000    0.5000000000000000 Sn
