La20 Sn16
1.0
   8.5540880000000001    0.0000000000000000    0.0000000000000000
   0.0000000000000000    8.6415819999999997    0.0000000000000000
   0.0000000000000000    0.0000000000000000   16.3454349999999984
La Sn
20 16
direct
   0.9738229999999999    0.8196200000000000    0.8989430000000000 La
   0.4738230000000000    0.6803800000000000    0.6010570000000000 La
   0.5261770000000000    0.3196200000000000    0.1010570000000000 La
   0.0261770000000000    0.1803800000000000    0.3989430000000000 La
   0.9738229999999999    0.8196200000000000    0.6010570000000000 La
   0.4738230000000000    0.6803800000000000    0.8989430000000000 La
   0.5261770000000000    0.3196200000000000    0.3989430000000000 La
   0.0261770000000000    0.1803800000000000    0.1010570000000000 La
   0.8806650000000001    0.6614830000000000    0.3830390000000000 La
   0.3806650000000000    0.8385170000000000    0.1169610000000000 La
   0.6193350000000000    0.1614830000000000    0.6169610000000000 La
   0.1193350000000000    0.3385170000000000    0.8830390000000000 La
   0.1193350000000000    0.3385170000000000    0.6169610000000000 La
   0.6193350000000000    0.1614830000000000    0.8830390000000000 La
   0.3806650000000000    0.8385170000000000    0.3830390000000000 La
   0.8806650000000001    0.6614830000000000    0.1169610000000000 La
   0.2894870000000000    0.0033480000000000    0.7500000000000001 La
   0.7894870000000000    0.4966520000000000    0.7500000000000001 La
   0.2105130000000000    0.5033480000000000    0.2500000000000000 La
   0.7105130000000000    0.9966520000000000    0.2500000000000000 La
   0.7803880000000001    0.4688020000000000    0.5439120000000000 Sn
   0.2803880000000000    0.0311980000000000    0.9560880000000000 Sn
   0.7196120000000000    0.9688020000000002    0.4560880000000000 Sn
   0.2196120000000000    0.5311979999999999    0.0439120000000000 Sn
   0.2196120000000000    0.5311979999999999    0.4560880000000000 Sn
   0.7196120000000000    0.9688020000000002    0.0439120000000000 Sn
   0.2803880000000000    0.0311980000000000    0.5439120000000000 Sn
   0.7803880000000001    0.4688020000000000    0.9560880000000000 Sn
   0.1716210000000000    0.6381610000000000    0.7500000000000001 Sn
   0.6716210000000000    0.8618390000000000    0.7500000000000001 Sn
   0.3283790000000000    0.1381610000000000    0.2500000000000000 Sn
   0.8283790000000000    0.3618390000000000    0.2500000000000000 Sn
   0.9184190000000001    0.1140670000000000    0.7500000000000001 Sn
   0.4184190000000000    0.3859330000000001    0.7500000000000001 Sn
   0.5815810000000000    0.6140670000000000    0.2500000000000000 Sn
   0.0815810000000000    0.8859330000000001    0.2500000000000000 Sn
