Ni19 Ge12
1.0
   3.3558309999999998    5.8253259999999996    0.0000000000000000
  -3.3558309999999998    5.8253259999999996    0.0000000000000000
   0.0000000000000000    0.0115750000000000   10.0631699999999995
Ni Ge
19 12
direct
   0.6713930000000001    0.3286069999999999    0.5000000000000000 Ni
   0.0054579999999999    0.9985410000000000    0.2544050000000000 Ni
   0.0014589999999999    0.9945419999999999    0.7455950000000000 Ni
   0.6633180000000000    0.6678780000000000    0.2522690000000000 Ni
   0.3321219999999999    0.3366819999999999    0.7477310000000000 Ni
   0.3385279999999999    0.9976039999999999    0.0036280000000000 Ni
   0.0023960000000000    0.6614719999999999    0.9963720000000000 Ni
   0.6665520000000000    0.0146940000000000    0.1257550000000000 Ni
   0.9853060000000001    0.3334479999999999    0.8742449999999999 Ni
   0.6604890000000000    0.0015639999999999    0.3770440000000000 Ni
   0.9984359999999999    0.3395110000000000    0.6229560000000000 Ni
   0.6649540000000000    0.9810520000000000    0.6238210000000000 Ni
   0.0189480000000000    0.3350460000000001    0.3761790000000000 Ni
   0.6693320000000000    0.0023919999999999    0.8742259999999999 Ni
   0.9976079999999999    0.3306679999999999    0.1257740000000000 Ni
   0.3398740000000001    0.6486810000000000    0.1258470000000000 Ni
   0.3513189999999999    0.6601260000000001    0.8741530000000000 Ni
   0.3232710000000000    0.6535170000000001    0.3772550000000000 Ni
   0.3464830000000000    0.6767290000000001    0.6227450000000000 Ni
   0.9742769999999999    0.0257230000000000    0.0000000000000000 Ge
   0.0227610000000000    0.9772390000000001    0.5000000000000000 Ge
   0.6373990000000000    0.3318090000000001    0.2524940000000000 Ge
   0.6681910000000000    0.3626010000000000    0.7475060000000000 Ge
   0.6685790000000000    0.6313949999999999    0.0022820000000000 Ge
   0.3686050000000000    0.3314210000000000    0.9977180000000000 Ge
   0.6712800000000000    0.6802600000000000    0.4979680000000000 Ge
   0.3197400000000000    0.3287200000000000    0.5020320000000000 Ge
   0.3357069999999999    0.0358960000000000    0.2522590000000000 Ge
   0.9641040000000000    0.6642930000000001    0.7477410000000000 Ge
   0.3636279999999999    0.9715160000000002    0.7520150000000000 Ge
   0.0284840000000000    0.6363720000000000    0.2479850000000000 Ge
