Rb8 As8
1.0
   6.7425530000000000    0.0000000000000000    0.0000000000000000
   0.0000000000000000    7.0834530000000004    0.0000000000000000
   0.0000000000000000    0.0000000000000000   12.2701410000000006
Rb As
8 8
direct
   0.0989390000000000    0.1090570000000000    0.4180500000000000 Rb
   0.5989390000000000    0.3909430000000000    0.5819500000000000 Rb
   0.9010610000000000    0.6090570000000000    0.0819500000000000 Rb
   0.4010610000000001    0.8909430000000000    0.9180500000000000 Rb
   0.6677130000000000    0.1460180000000000    0.2125830000000000 Rb
   0.1677130000000000    0.3539820000000000    0.7874170000000000 Rb
   0.3322870000000001    0.6460180000000000    0.2874170000000000 Rb
   0.8322870000000000    0.8539820000000000    0.7125830000000000 Rb
   0.1693840000000000    0.1846430000000000    0.1056820000000000 As
   0.6693840000000001    0.3153570000000000    0.8943179999999998 As
   0.8306160000000000    0.6846429999999999    0.3943180000000001 As
   0.3306160000000000    0.8153570000000000    0.6056820000000001 As
   0.4097810000000001    0.4254240000000000    0.0310090000000000 As
   0.9097820000000000    0.0745760000000000    0.9689910000000002 As
   0.5902180000000000    0.9254240000000000    0.4689910000000000 As
   0.0902190000000000    0.5745760000000000    0.5310090000000000 As
