Mg6 Ti6
1.0
   4.7777830000000003    0.0000000000000000    0.0000000000000000
   0.0000000000000000    6.0155120000000002    0.0000000000000000
   0.0000000000000000    1.5039810000000000    8.1863329999999994
Mg Ti
6 6
direct
   0.2500000000000000    0.4681910000000000    0.6121010000000001 Mg
   0.2500000000000000    0.9765900000000000    0.6089230000000001 Mg
   0.7500000000000001    0.5318090000000000    0.3878990000000000 Mg
   0.7500000000000001    0.0234100000000000    0.3910770000000001 Mg
   0.2500000000000000    0.3111710000000000    0.2671820000000000 Mg
   0.7500000000000001    0.6888290000000001    0.7328180000000000 Mg
   0.2500000000000000    0.8160100000000000    0.2412710000000000 Ti
   0.7500000000000001    0.8690450000000001    0.0475260000000000 Ti
   0.7500000000000001    0.3497200000000000    0.0483630000000000 Ti
   0.2500000000000000    0.6502800000000000    0.9516370000000000 Ti
   0.2500000000000000    0.1309550000000000    0.9524740000000000 Ti
   0.7500000000000001    0.1839899999999999    0.7587290000000000 Ti
