Zn2 Sn6
1.0
   3.2854809999999999   -5.6906189999999999    0.0000000000000000
   3.2854809999999999    5.6906189999999999    0.0000000000000000
   0.0000000000000000    0.0000000000000000    5.4568279999999998
Zn Sn
2 6
direct
   0.3333330000000000    0.6666670000000000    0.7500000000000000 Zn
   0.6666670000000000    0.3333330000000000    0.2500000000000000 Zn
   0.1691690000000000    0.3383380000000000    0.2500000000000000 Sn
   0.6616620000000000    0.8308309999999999    0.2500000000000000 Sn
   0.1691690000000001    0.8308310000000000    0.2500000000000000 Sn
   0.8308309999999999    0.6616620000000000    0.7500000000000000 Sn
   0.3383380000000000    0.1691690000000000    0.7500000000000000 Sn
   0.8308310000000000    0.1691690000000001    0.7500000000000000 Sn
