Y1 Mg3
1.0
   0.0000000000000000    3.6640929999999998    3.6640929999999998
   3.6640929999999998    0.0000000000000000    3.6640929999999998
   3.6640929999999998    3.6640929999999998    0.0000000000000000
Y Mg
1 3
direct
   0.0000000000000000    0.0000000000000000    0.0000000000000000 Y
   0.2500000000000001    0.2500000000000000    0.2500000000000001 Mg
   0.5000000000000001    0.5000000000000000    0.5000000000000001 Mg
   0.7500000000000001    0.7500000000000001    0.7500000000000001 Mg
