Tb2 Ge3
1.0
   2.2147199999999998   -3.8360080000000001    0.0000000000000000
   2.2147199999999998    3.8360080000000001    0.0000000000000000
   0.0000000000000000    0.0000000000000000    7.1027040000000001
Tb Ge
2 3
direct
   0.6666669999999999    0.3333330000000001    0.2306060000000000 Tb
   0.6666669999999999    0.3333330000000001    0.7693940000000001 Tb
   0.0000000000000000    0.0000000000000000    0.5000000000000000 Ge
   0.3333329999999999    0.6666670000000001    0.0000000000000000 Ge
   0.3333329999999999    0.6666670000000001    0.5000000000000000 Ge
