Mg8 Ga16
1.0
   4.1391600000000004    0.0000000000000000    0.0000000000000000
   0.0000000000000000    6.8846069999999999    0.0000000000000000
   0.0000000000000000    0.0000000000000000   16.3760930000000009
Mg Ga
8 16
direct
   0.0000000000000000    0.3242960000000000    0.0771920000000000 Mg
   0.0000000000000000    0.2982180000000000    0.7800140000000000 Mg
   0.0000000000000000    0.6757039999999999    0.9228080000000000 Mg
   0.0000000000000000    0.7017820000000000    0.2199860000000000 Mg
   0.0000000000000000    0.7982179999999999    0.7199860000000000 Mg
   0.0000000000000000    0.8242959999999999    0.4228080000000000 Mg
   0.0000000000000000    0.1757040000000000    0.5771920000000000 Mg
   0.0000000000000000    0.2017820000000000    0.2800140000000000 Mg
   0.5000000000000000    0.3574649999999999    0.9381470000000000 Ga
   0.5000000000000000    0.1425350000000000    0.4381470000000000 Ga
   0.5000000000000000    0.4704659999999999    0.6577590000000000 Ga
   0.5000000000000000    0.8574649999999999    0.5618530000000000 Ga
   0.0000000000000000    0.9016359999999999    0.0671740000000000 Ga
   0.0000000000000000    0.0983640000000000    0.9328260000000000 Ga
   0.5000000000000000    0.5295339999999998    0.3422410000000000 Ga
   0.5000000000000000    0.4088190000000000    0.1903100000000000 Ga
   0.5000000000000000    0.6425349999999999    0.0618530000000000 Ga
   0.0000000000000000    0.5983639999999999    0.5671740000000000 Ga
   0.5000000000000000    0.9088190000000000    0.3096900000000000 Ga
   0.5000000000000000    0.9704659999999999    0.8422410000000001 Ga
   0.5000000000000000    0.0911810000000000    0.6903100000000001 Ga
   0.5000000000000000    0.0295340000000000    0.1577590000000000 Ga
   0.5000000000000000    0.5911810000000000    0.8096900000000000 Ga
   0.0000000000000000    0.4016360000000000    0.4328260000000000 Ga
