Cr3 As1
1.0
  -1.7357210000000001    1.7357210000000001    4.0906500000000001
   1.7357210000000001   -1.7357210000000001    4.0906500000000001
   1.7357210000000001    1.7357210000000001   -4.0906500000000001
Cr As
3 1
direct
   0.7500000000000001    0.2500000000000000    0.5000000000000001 Cr
   0.2500000000000000    0.7500000000000001    0.5000000000000001 Cr
   0.5000000000000000    0.5000000000000000    0.0000000000000000 Cr
   0.0000000000000000    0.0000000000000000    0.0000000000000000 As
