Dy2 O3
1.0
   1.8400240000000001   -3.1870150000000002    0.0000000000000000
   1.8400240000000001    3.1870150000000002    0.0000000000000000
   0.0000000000000000    0.0000000000000000    5.8800780000000001
Dy O
2 3
direct
   0.6666670000000000    0.3333329999999999    0.7500490000000000 Dy
   0.3333330000000000    0.6666669999999999    0.2499510000000000 Dy
   0.6666670000000000    0.3333329999999999    0.3545430000000000 O
   0.3333330000000000    0.6666669999999999    0.6454569999999999 O
   0.0000000000000000    0.0000000000000000    0.0000000000000000 O
