Ni2 Sb2
1.0
   1.9817000000000000   -3.4324059999999998    0.0000000000000000
   1.9817000000000000    3.4324059999999998    0.0000000000000000
   0.0000000000000000    0.0000000000000000    5.1438199999999998
Ni Sb
2 2
direct
   0.0000000000000000    0.0000000000000000    0.0000000000000000 Ni
   0.0000000000000000    0.0000000000000000    0.5000000000000000 Ni
   0.3333329999999999    0.6666670000000001    0.2500000000000000 Sb
   0.6666670000000000    0.3333330000000000    0.7500000000000000 Sb
