Mg8 Si16
1.0
   6.0238399999999999    0.0000000000000000    0.0000000000000000
   0.0000000000000000    7.3790740000000001    0.0000000000000000
   0.0000000000000000    0.0000000000000000    9.4475210000000001
Mg Si
8 16
direct
   0.7500000000000000    0.8867570000000001    0.6385560000000000 Mg
   0.2500000000000000    0.7049340000000001    0.1022320000000000 Mg
   0.7500000000000000    0.2049340000000000    0.3977680000000000 Mg
   0.2500000000000000    0.3867570000000000    0.8614440000000001 Mg
   0.2500000000000000    0.1132430000000000    0.3614440000000000 Mg
   0.7500000000000000    0.2950660000000000    0.8977680000000001 Mg
   0.2500000000000000    0.7950660000000002    0.6022320000000000 Mg
   0.7500000000000000    0.6132430000000001    0.1385560000000000 Mg
   0.9476760000000000    0.4994590000000000    0.6300720000000000 Si
   0.4516550000000000    0.3221370000000001    0.1377570000000000 Si
   0.9516550000000000    0.8221370000000001    0.3622430000000000 Si
   0.4476760000000001    0.9994590000000001    0.8699280000000000 Si
   0.0523240000000000    0.5005410000000000    0.3699280000000000 Si
   0.5483450000000000    0.6778630000000001    0.8622430000000000 Si
   0.0483450000000000    0.1778630000000000    0.6377570000000000 Si
   0.5523240000000000    0.0005410000000000    0.1300720000000000 Si
   0.5483450000000000    0.8221370000000001    0.3622430000000000 Si
   0.0523240000000000    0.9994590000000001    0.8699280000000000 Si
   0.5523240000000000    0.4994590000000000    0.6300720000000000 Si
   0.0483450000000000    0.3221370000000001    0.1377570000000000 Si
   0.4516550000000000    0.1778630000000000    0.6377570000000000 Si
   0.9476760000000000    0.0005410000000000    0.1300720000000000 Si
   0.4476760000000001    0.5005410000000000    0.3699280000000000 Si
   0.9516550000000000    0.6778630000000001    0.8622430000000000 Si
