Ca6 Mg2
1.0
   3.7169880000000002   -6.4380119999999996    0.0000000000000000
   3.7169880000000002    6.4380119999999996    0.0000000000000000
   0.0000000000000000    0.0000000000000000    6.0159779999999996
Ca Mg
6 2
direct
   0.1700220000000000    0.8299780000000000    0.7500000000000000 Ca
   0.6599560000000000    0.8299780000000001    0.7500000000000000 Ca
   0.1700220000000000    0.3400440000000000    0.7500000000000000 Ca
   0.8299780000000000    0.1700220000000000    0.2500000000000000 Ca
   0.8299780000000001    0.6599560000000000    0.2500000000000000 Ca
   0.3400440000000000    0.1700220000000000    0.2500000000000000 Ca
   0.6666670000000000    0.3333330000000000    0.7500000000000000 Mg
   0.3333330000000000    0.6666670000000000    0.2500000000000000 Mg
