Pr2 Ni2
1.0
   1.9288419999999999   -5.3445460000000002    0.0000000000000000
   1.9288419999999999    5.3445460000000002    0.0000000000000000
   0.0000000000000000    0.0000000000000000    4.3391190000000002
Pr Ni
2 2
direct
   0.6374470000000000    0.3625530000000001    0.7500000000000000 Pr
   0.3625530000000000    0.6374470000000001    0.2500000000000000 Pr
   0.9291250000000000    0.0708750000000001    0.7500000000000000 Ni
   0.0708750000000000    0.9291250000000002    0.2500000000000000 Ni
