Zn2 Cl6
1.0
   4.9028530000000003   -8.4919910000000005    0.0000000000000000
   4.9028530000000003    8.4919910000000005    0.0000000000000000
   0.0000000000000000    0.0000000000000000    2.9095550000000001
Zn Cl
2 6
direct
   0.6666670000000000    0.3333330000000000    0.7500000000000000 Zn
   0.3333330000000000    0.6666670000000000    0.2500000000000000 Zn
   0.5565140000000000    0.7190349999999999    0.7500000000000000 Cl
   0.8374789999999999    0.5565140000000000    0.2500000000000000 Cl
   0.4434860000000000    0.2809650000000001    0.2500000000000000 Cl
   0.1625210000000000    0.4434860000000000    0.7500000000000000 Cl
   0.2809650000000001    0.8374790000000000    0.7500000000000000 Cl
   0.7190350000000000    0.1625210000000000    0.2500000000000000 Cl
