B18 C2
1.0
   4.3122080000000000    0.0000000000000000    0.0000000000000000
   0.7964200000000000    4.7692850000000000    0.0000000000000000
   1.0310180000000000    0.4483740000000000    7.2873229999999998
B C
18 2
direct
   0.9763139999999997    0.2519620000000000    0.6907730000000001 B
   0.9086349999999997    0.6389570000000000    0.6073670000000001 B
   0.1699410000000000    0.1301370000000000    0.0448290000000000 B
   0.3773080000000000    0.5710370000000001    0.1767040000000000 B
   0.8102170000000001    0.7705800000000000    0.3633650000000000 B
   0.2226990000000000    0.7017560000000000    0.4321590000000001 B
   0.8507080000000001    0.9741500000000001    0.1410630000000000 B
   0.3759870000000000    0.9319460000000002    0.8552370000000000 B
   0.2162170000000000    0.6182810000000000    0.8643020000000000 B
   0.7481700000000000    0.9600249999999999    0.7184310000000002 B
   0.8053409999999999    0.6182850000000000    0.1541890000000000 B
   0.5646570000000000    0.1257630000000000    0.2905850000000000 B
   0.3857269999999999    0.1071250000000000    0.6310880000000000 B
   0.5992440000000000    0.4680390000000000    0.3464130000000001 B
   0.5272469999999999    0.8935410000000000    0.0613690000000000 B
   0.2725609999999999    0.4730620000000000    0.6566570000000000 B
   0.6634480000000000    0.3492310000000000    0.5678030000000001 B
   0.9744119999999999    0.0031570000000000    0.8923340000000001 B
   0.1416750000000000    0.4615549999999999    0.0578460000000000 C
   0.4094929999999999    0.9514109999999999    0.4474870000000000 C
