Zn50 S50
1.0
  13.6356676300000004   -0.3217799100000000   -0.3329205100000000
  -0.3570910500000000   13.9806639700000002   -1.2961721900000001
  -0.3954273200000000   -1.3233621799999999   13.1406279300000008
Zn S
50 50
direct
   0.4392777000000000    0.8759586300000002    0.3020078700000000 Zn
   0.1843688300000000    0.6478578000000002    0.6066442600000000 Zn
   0.3602894100000000    0.7986570100000000    0.6589676799999998 Zn
   0.9685951100000001    0.2824091600000000    0.5307987000000000 Zn
   0.3501795400000001    0.5281450100000001    0.7456173299999999 Zn
   0.3579548100000000    0.1079093300000000    0.7377976400000000 Zn
   0.6442412200000001    0.0735153700000000    0.3237261700000000 Zn
   0.5472227900000001    0.7296856900000002    0.5066989000000000 Zn
   0.0792813500000000    0.5279412700000001    0.8685252599999999 Zn
   0.6090391500000000    0.4457954900000000    0.7343276300000000 Zn
   0.8779803000000003    0.7994033900000002    0.2960635200000000 Zn
   0.7266000200000002    0.8494459200000000    0.3671372100000000 Zn
   0.3131832100000000    0.8258016099999999    0.0766320700000000 Zn
   0.7292086499999999    0.0738645600000000    0.9944176900000001 Zn
   0.1062409200000000    0.1934742900000000    0.0588340800000000 Zn
   0.0387022200000000    0.7088990900000001    0.7113080200000000 Zn
   0.1227852300000000    0.2996950900000001    0.8116432400000001 Zn
   0.7130687700000000    0.2264309700000000    0.2055085600000000 Zn
   0.8602071400000001    0.3648861800000001    0.8238546899999999 Zn
   0.5558069900000001    0.0145908600000000    0.5805852000000000 Zn
   0.7723086400000001    0.7008898500000001    0.6086849900000000 Zn
   0.4234128300000001    0.4945182600000000    0.4420197200000000 Zn
   0.5977260500000001    0.6379761100000000    0.8839141399999999 Zn
   0.5324135800000001    0.8504722799999999    0.8156342399999997 Zn
   0.7332176300000000    0.1824252700000000    0.6035267600000001 Zn
   0.6093184600000001    0.3330444500000000    0.4512098899999999 Zn
   0.5137751500000000    0.3836801500000000    0.2567974000000000 Zn
   0.9609724700000001    0.1738963400000000    0.9203678900000000 Zn
   0.0302155100000000    0.6672639500000003    0.4947251600000000 Zn
   0.9326020200000001    0.0871853500000000    0.6082174699999999 Zn
   0.3012858500000001    0.0597111400000000    0.4544612400000000 Zn
   0.2160750400000000    0.7924564800000000    0.9034711900000000 Zn
   0.9605289000000000    0.9197685200000001    0.5972447900000000 Zn
   0.2433618300000001    0.2272285100000000    0.2764444300000000 Zn
   0.3752082800000001    0.6243898000000000    0.1874062900000000 Zn
   0.2073257000000000    0.4410905000000000    0.2197005000000000 Zn
   0.5119037300000001    0.2642779800000000    0.0258051400000000 Zn
   0.1161456100000000    0.8714843400000001    0.3127162800000000 Zn
   0.9275576700000000    0.8952419400000000    0.8895268600000000 Zn
   0.9417043400000003    0.4562443200000000    0.5925202600000000 Zn
   0.1188051500000000    0.3955596600000000    0.5895825900000000 Zn
   0.1251275200000000    0.0864902000000000    0.8897755700000000 Zn
   0.1763326700000000    0.9439805700000001    0.0637516200000000 Zn
   0.0612078800000000    0.6245780200000000    0.2183573300000000 Zn
   0.9622965400000001    0.7838518500000000    0.0406953800000000 Zn
   0.7874679400000001    0.8493922700000001    0.9953653899999999 Zn
   0.9406962700000000    0.3547148500000000    0.1740067800000000 Zn
   0.3620420500000001    0.1662429800000000   -0.0000436200000000 Zn
   0.8870000100000001    0.4905638200000000    0.3670867899999999 Zn
   0.7952465700000002    0.5918335700000000    0.8094269100000000 Zn
   0.0682442500000000    0.6952278000000000    0.8970684699999999 S
   0.6667060200000001    0.3296471700000000    0.6098890100000000 S
   0.2375044900000000    0.1846469200000000    0.8322532199999999 S
   0.0173297200000000    0.8176934700000003    0.4340678200000000 S
   0.9261042900000001    0.5016842300000000    0.7688326199999999 S
   0.2488618500000000    0.1120769800000000    0.1131404600000000 S
   0.3641336700000000    0.8954307700000000    0.8328338400000002 S
   0.5818032900000001    0.9485548900000002    0.3937883100000000 S
   0.9048273000000001    0.8072394100000001    0.7048654500000000 S
   0.8500912700000000    0.0397841300000000    0.8857141799999999 S
   0.5699638400000000    0.4234319300000000    0.1115866300000000 S
   0.1734814100000000    0.1465464200000000    0.4007092900000000 S
   0.2931605500000000    0.6857799700000000    0.7576931899999999 S
   0.6672409100000000    0.6176293000000000    0.7050881599999999 S
   0.5830347200000000    0.4795474000000000    0.4080472900000000 S
   0.1021423600000000    0.9261423500000001    0.8860845999999999 S
   0.8011636100000001    0.3818486500000001    0.2491964400000000 S
   0.7077170800000001    0.4156600200000000    0.8825946800000000 S
   0.0824865000000000    0.4017256500000000    0.9736553500000000 S
   0.8782883400000000    0.5813600400000000    0.5265969200000000 S
   0.1342035100000000    0.2219309700000000    0.5454264400000000 S
   0.6812885500000001    0.2263107300000000    0.0321288200000000 S
   0.3429763200000001    0.4462487800000000    0.5718023800000001 S
   0.9598140999999999    0.2331401700000000    0.7545361700000000 S
   0.1888146000000000    0.4398838500000001    0.7605024600000000 S
   0.7376257399999999    0.5604371900000000    0.9624261300000000 S
   0.7034338200000000    0.9714583300000003    0.1125368000000000 S
   0.5722322300000000    0.2158871400000000    0.3048579199999999 S
   0.0512283300000000    0.9115141800000002    0.1640054900000000 S
   0.7855538399999999    0.0724122900000000    0.2328773100000000 S
   0.6967349400000000    0.7182562100000000    0.4528958100000000 S
   0.9234145000000001    0.6809433400000001    0.1564610900000000 S
   0.4169768099999999    0.1098536700000000    0.5831932299999999 S
   0.4859178500000000    0.5045513300000000    0.8397011799999999 S
   0.2123806200000000    0.5793967800000001    0.1548290800000000 S
   0.2844462200000000    0.9241496100000000    0.3318967199999999 S
   0.5182057000000001    0.5635763700000002    0.1316655300000000 S
   0.2806365800000000    0.7390271000000000    0.4954257000000000 S
   0.0502376600000000    0.5384609400000001    0.3494828200000000 S
   0.2123384300000000    0.4903675500000000    0.5046653300000000 S
   0.6139075800000001    0.8032770700000001    0.9465781299999999 S
   0.5198466200000000    0.8540080400000000    0.6403027700000000 S
   0.8532171800000002    0.1618835100000000    0.4811068100000000 S
   0.4454513300000000    0.7709645100000000    0.1513349900000000 S
   0.4300280300000000    0.0410166500000000    0.8717895600000000 S
   0.3412999099999999    0.3710323000000000    0.2877853599999999 S
   0.9391450099999998    0.3535082000000000    0.9952375299999999 S
   0.6969824600000001    0.0572503100000000    0.6748966499999999 S
   0.3968426500000001    0.6626983100000000    0.4216791599999999 S
   0.0938921400000000    0.3059769900000000    0.2097415600000000 S
