Mg4 C6
1.0
   3.7421880000000001    0.0000000000000000    0.0000000000000000
   0.0000000000000000    5.2914969999999997    0.0000000000000000
   0.0000000000000000    0.0000000000000000    6.4479300000000004
Mg C
4 6
direct
   0.4999999999999999    0.8915979999999999    0.2085260000000000 Mg
   0.4999999999999999    0.1084020000000000    0.7914739999999999 Mg
   0.0000000000000000    0.3915980000000000    0.2914740000000000 Mg
   0.0000000000000000    0.6084020000000000    0.7085259999999999 Mg
   0.4999999999999999    0.7065649999999999    0.8820420000000000 C
   0.4999999999999999    0.2934350000000000    0.1179580000000000 C
   0.0000000000000000    0.2065650000000000    0.6179580000000000 C
   0.0000000000000000    0.7934350000000000    0.3820420000000000 C
   0.0000000000000000    0.0000000000000000    0.4999999999999999 C
   0.4999999999999999    0.4999999999999999    0.0000000000000000 C
