Cs4 K8
1.0
   4.5332480000000004   -7.8518160000000004    0.0000000000000000
   4.5332480000000004    7.8518160000000004    0.0000000000000000
   0.0000000000000000    0.0000000000000000   14.8478290000000008
Cs K
4 8
direct
   0.3333330000000000    0.6666670000000000    0.4370630000000000 Cs
   0.6666670000000000    0.3333330000000000    0.9370630000000000 Cs
   0.6666670000000000    0.3333330000000000    0.5629370000000000 Cs
   0.3333330000000000    0.6666670000000000    0.0629370000000000 Cs
   0.1679870000000000    0.3359750000000000    0.7499999999999999 K
   0.8320130000000000    0.1679870000000000    0.2500000000000000 K
   0.3359750000000000    0.1679870000000000    0.2500000000000000 K
   0.6640250000000000    0.8320130000000000    0.7499999999999999 K
   0.0000000000000000    0.0000000000000000    0.0000000000000000 K
   0.0000000000000000    0.0000000000000000    0.5000000000000000 K
   0.8320130000000000    0.6640250000000000    0.2500000000000000 K
   0.1679870000000000    0.8320130000000000    0.7499999999999999 K
