Na4 Cl12
1.0
   6.1935820000000001    0.0000000000000000    0.0000000000000000
   0.0000000000000000    7.8401090000000000    0.0000000000000000
   0.0000000000000000    0.0000000000000000    8.4198160000000009
Na Cl
4 12
direct
   0.2500000000000000    0.0233690000000000    0.8371510000000000 Na
   0.2500000000000000    0.4766310000000000    0.3371510000000000 Na
   0.7500000000000000    0.9766309999999999    0.1628490000000000 Na
   0.7500000000000000    0.5233690000000000    0.6628490000000000 Na
   0.2500000000000000    0.3383280000000000    0.6555270000000000 Cl
   0.2500000000000000    0.1616720000000000    0.1555270000000000 Cl
   0.7500000000000000    0.6616720000000000    0.3444730000000000 Cl
   0.7500000000000000    0.8383279999999999    0.8444730000000000 Cl
   0.2500000000000000    0.7792019999999998    0.5751690000000000 Cl
   0.2500000000000000    0.7207980000000000    0.0751690000000000 Cl
   0.7500000000000000    0.2207980000000000    0.4248310000000000 Cl
   0.7500000000000000    0.2792020000000000    0.9248309999999998 Cl
   0.2500000000000000    0.5385929999999999    0.8768339999999999 Cl
   0.2500000000000000    0.9614069999999999    0.3768340000000000 Cl
   0.7500000000000000    0.4614070000000000    0.1231660000000000 Cl
   0.7500000000000000    0.0385930000000000    0.6231660000000000 Cl
