Nd2 Au12
1.0
   3.9407190000000001    3.9609920000000001    0.0000000000000000
  -3.9407190000000001    3.9609920000000001    0.0000000000000000
   0.0000000000000000    1.7070559999999999    9.1605249999999998
Nd Au
2 12
direct
   0.3156299999999999    0.6843700000000000    0.7500000000000000 Nd
   0.6843700000000000    0.3156300000000001    0.2500000000000000 Nd
   0.0422969999999999    0.1560340000000000    0.8638550000000000 Au
   0.8439659999999999    0.9577030000000001    0.6361450000000000 Au
   0.9577029999999999    0.8439660000000001    0.1361450000000000 Au
   0.1560340000000000    0.0422970000000000    0.3638550000000000 Au
   0.7783859999999999    0.6159860000000000    0.9192950000000000 Au
   0.3840140000000000    0.2216140000000000    0.5807050000000000 Au
   0.2216139999999999    0.3840140000000000    0.0807050000000000 Au
   0.6159859999999999    0.7783860000000000    0.4192950000000000 Au
   0.8357249999999999    0.4593410000000000    0.6281620000000001 Au
   0.5406589999999999    0.1642750000000000    0.8718380000000000 Au
   0.1642749999999999    0.5406589999999999    0.3718380000000000 Au
   0.4593409999999999    0.8357250000000001    0.1281620000000000 Au
