Re3 Rh1
1.0
   1.3894599999999999   -2.4066149999999999    0.0000000000000000
   1.3894599999999999    2.4066149999999999    0.0000000000000000
   0.0000000000000000    0.0000000000000000    8.8656179999999996
Re Rh
3 1
direct
   0.6666670000000000    0.3333329999999999    0.5000000000000000 Re
   0.3333329999999999    0.6666670000000000    0.2489540000000000 Re
   0.3333329999999999    0.6666670000000000    0.7510460000000000 Re
   0.6666670000000000    0.3333329999999999    0.0000000000000000 Rh
