Te16 Rh15
1.0
   8.0357230000000008    0.0000000000000000    0.0000000000000000
   0.0000000000000000    9.0924560000000003    0.0000000000000000
   0.0000000000000000    1.9554560000000001    8.9121330000000007
Te Rh
16 15
direct
   0.2468690000000000    0.5436390000000000    0.2860040000000000 Te
   0.0000000000000000    0.2841330000000000    0.0511140000000000 Te
   0.7471339999999999    0.0396190000000000    0.7907680000000000 Te
   0.5000000000000000    0.7936500000000000    0.5349440000000000 Te
   0.0000000000000000    0.7158670000000001    0.9488860000000000 Te
   0.7531309999999999    0.4563610000000000    0.7139960000000000 Te
   0.5000000000000000    0.2063500000000000    0.4650560000000000 Te
   0.2528660000000000    0.9603809999999999    0.2092320000000000 Te
   0.5000000000000000    0.2947220000000000    0.0365150000000000 Te
   0.2528660000000000    0.0396190000000000    0.7907680000000000 Te
   0.0000000000000000    0.7892759999999999    0.5397729999999999 Te
   0.7531309999999999    0.5436390000000000    0.2860040000000000 Te
   0.7471339999999999    0.9603809999999999    0.2092320000000000 Te
   0.5000000000000000    0.7052780000000000    0.9634850000000000 Te
   0.2468690000000000    0.4563610000000000    0.7139960000000000 Te
   0.0000000000000000    0.2107240000000000    0.4602269999999999 Te
   0.2343020000000000    0.5000000000000000    0.0000000000000000 Rh
   0.0000000000000000    0.2563450000000000    0.7643050000000000 Rh
   0.7392990000000000    0.0000000000000000    0.5000000000000000 Rh
   0.5000000000000000    0.7391529999999999    0.2611500000000000 Rh
   0.0000000000000000    0.7436550000000000    0.2356950000000000 Rh
   0.7656980000000000    0.5000000000000000    0.0000000000000000 Rh
   0.5000000000000000    0.2608470000000000    0.7388500000000000 Rh
   0.2607010000000000    0.0000000000000000    0.5000000000000000 Rh
   0.0000000000000000    0.5000000000000000    0.5000000000000000 Rh
   0.7420720000000000    0.2563059999999999    0.2585510000000000 Rh
   0.5000000000000000    0.0000000000000000    0.0000000000000000 Rh
   0.2579280000000000    0.7436940000000001    0.7414490000000000 Rh
   0.2579280000000000    0.2563059999999999    0.2585510000000000 Rh
   0.0000000000000000    0.0000000000000000    0.0000000000000000 Rh
   0.7420720000000000    0.7436940000000001    0.7414490000000000 Rh
