V20 As11
1.0
   2.4272339999999999   -6.6637240000000002    0.0000000000000000
   2.4272339999999999    6.6637240000000002    0.0000000000000000
   0.0000000000000000    0.0000000000000000   13.3604420000000008
V As
20 11
direct
   0.7501280000000000    0.2515419999999999    0.2473370000000000 V
   0.2515420000000000    0.7501279999999999    0.7526630000000000 V
   0.2498720000000000    0.7484579999999998    0.2473370000000000 V
   0.7484580000000000    0.2498720000000000    0.7526630000000000 V
   0.8290590000000000    0.6793599999999999    0.3470890000000000 V
   0.3095439999999999    0.1596540000000000    0.8522100000000000 V
   0.1596540000000000    0.3095439999999999    0.1477900000000000 V
   0.6793600000000000    0.8290589999999999    0.6529110000000000 V
   0.6173150000000001    0.9128809999999999    0.0730360000000000 V
   0.0959440000000000    0.4013760000000000    0.5760520000000000 V
   0.4013760000000000    0.0959439999999999    0.4239480000000000 V
   0.9128810000000001    0.6173149999999999    0.9269640000000001 V
   0.3826850000000000    0.0871190000000000    0.0730360000000000 V
   0.9040560000000000    0.5986239999999999    0.5760520000000000 V
   0.5986240000000000    0.9040559999999999    0.4239480000000000 V
   0.0871190000000000    0.3826850000000000    0.9269640000000001 V
   0.1709410000000000    0.3206400000000000    0.3470890000000000 V
   0.6904560000000000    0.8403459999999999    0.8522100000000000 V
   0.8403460000000000    0.6904559999999998    0.1477900000000000 V
   0.3206400000000000    0.1709410000000000    0.6529110000000000 V
   0.0000000000000000    0.4999999999999999    0.0830600000000000 As
   0.5000000000000000   -0.0000000000000000    0.5862990000000000 As
   0.0000000000000000    0.4999999999999999    0.4137010000000000 As
   0.5000000000000000   -0.0000000000000000    0.9169400000000000 As
   0.3324060000000000    0.1629350000000000    0.2474940000000000 As
   0.8370649999999999    0.6675939999999999    0.7525060000000001 As
   0.6675940000000000    0.8370649999999998    0.2474940000000000 As
   0.1629350000000000    0.3324060000000000    0.7525060000000001 As
   0.5000000000000000    0.4999999999999999    0.5000000000000000 As
   0.5000000000000000    0.4999999999999999    0.0000000000000000 As
   0.0000000000000000    0.0000000000000000    0.5000000000000000 As
