Gd1 Mn12
1.0
   4.3056530000000004    0.0008020000000000    1.6890609999999999
   2.1523620000000001    5.8783159999999999    0.8487040000000000
   0.0059280000000000    0.0044750000000000    6.3214300000000003
Gd Mn
1 12
direct
   0.0062670000000001    0.9995639999999998    0.9981920000000000 Gd
   0.0061950000000000    0.3610430000000000    0.6370470000000000 Mn
   0.5064109999999999    0.2265850000000000    0.7712340000000000 Mn
   0.2765270000000000    0.2286740000000000    0.2275980000000001 Mn
   0.7349779999999997    0.7710780000000000    0.7700600000000002 Mn
   0.5051579999999999    0.9997350000000000    0.5001050000000000 Mn
   0.5062659999999998    0.7718080000000000    0.2260720000000001 Mn
   0.3669919999999999    0.6378940000000000    0.6368120000000002 Mn
   0.0054140000000000    0.6366479999999999    0.3620830000000000 Mn
   0.5075329999999999    0.4995099999999999    0.9953320000000000 Mn
   0.6424680000000000    0.3633089999999999    0.3626130000000000 Mn
   0.0079210000000000    0.4995100000000000    0.9954650000000003 Mn
   0.0052109999999999    0.9999429999999999    0.5000320000000000 Mn
