Zn26 S26
1.0
   1.9265049999999999   -3.3368050000000000    0.0000000000000000
   1.9265049999999999    3.3368050000000000    0.0000000000000000
   0.0000000000000000    0.0000000000000000   81.8668749999999932
Zn S
26 26
direct
   0.3333329999999999    0.6666669999999999    0.1538260000000000 Zn
   0.0000000000000000    0.0000000000000000    0.1153870000000000 Zn
   0.6666670000000000    0.3333329999999998    0.6538360000000000 Zn
   0.0000000000000000    0.0000000000000000    0.2307820000000000 Zn
   0.0000000000000000    0.0000000000000000    0.3077020000000000 Zn
   0.6666670000000000    0.3333329999999998    0.1923190000000000 Zn
   0.3333329999999999    0.6666669999999999    0.2692240000000000 Zn
   0.6666670000000000    0.3333329999999998    0.3461660000000000 Zn
   0.3333329999999999    0.6666669999999999    0.3846210000000000 Zn
   0.6666670000000000    0.3333329999999998    0.9230880000000001 Zn
   0.6666670000000000    0.3333329999999998    0.8076920000000000 Zn
   0.6666670000000000    0.3333329999999998    0.5769180000000000 Zn
   0.3333329999999999    0.6666669999999999    0.7307850000000000 Zn
   0.0000000000000000    0.0000000000000000    0.9999900000000000 Zn
   0.3333329999999999    0.6666669999999999    0.9615200000000000 Zn
   0.3333329999999999    0.6666669999999999    0.6153850000000000 Zn
   0.0000000000000000    0.0000000000000000    0.8846230000000000 Zn
   0.3333329999999999    0.6666669999999999    0.8461710000000001 Zn
   0.3333329999999999    0.6666669999999999    0.0384800000000000 Zn
   0.0000000000000000    0.0000000000000000    0.7692360000000001 Zn
   0.0000000000000000    0.0000000000000000    0.5384790000000000 Zn
   0.6666670000000000    0.3333329999999998    0.4230970000000000 Zn
   0.6666670000000000    0.3333329999999998    0.0769240000000000 Zn
   0.0000000000000000    0.0000000000000000    0.4615190000000001 Zn
   0.0000000000000000    0.0000000000000000    0.6923140000000000 Zn
   0.3333329999999999    0.6666669999999999    0.4999900000000000 Zn
   0.0000000000000000    0.0000000000000000    0.9134710000000000 S
   0.6666670000000000    0.3333329999999998    0.2211700000000000 S
   0.6666670000000000    0.3333329999999998    0.6826800000000000 S
   0.6666670000000000    0.3333329999999998    0.1057710000000000 S
   0.0000000000000000    0.0000000000000000    0.4903480000000001 S
   0.3333329999999999    0.6666669999999999    0.9903480000000001 S
   0.0000000000000000    0.0000000000000000    0.7211450000000000 S
   0.3333329999999999    0.6666669999999999    0.6442410000000001 S
   0.3333329999999999    0.6666669999999999    0.5288610000000001 S
   0.0000000000000000    0.0000000000000000    0.5673030000000001 S
   0.3333329999999999    0.6666669999999999    0.1826820000000000 S
   0.6666670000000000    0.3333329999999998    0.4519130000000001 S
   0.3333329999999999    0.6666669999999999    0.4134930000000000 S
   0.6666670000000000    0.3333329999999998    0.9519130000000000 S
   0.0000000000000000    0.0000000000000000    0.2595920000000000 S
   0.3333329999999999    0.6666669999999999    0.0673060000000000 S
   0.6666670000000000    0.3333329999999998    0.6057480000000000 S
   0.0000000000000000    0.0000000000000000    0.3365340000000000 S
   0.3333329999999999    0.6666669999999999    0.7596390000000001 S
   0.0000000000000000    0.0000000000000000    0.0288610000000000 S
   0.3333329999999999    0.6666669999999999    0.2980920000000000 S
   0.3333329999999999    0.6666669999999999    0.8750090000000000 S
   0.6666670000000000    0.3333329999999998    0.8365340000000000 S
   0.6666670000000000    0.3333329999999998    0.3749870000000000 S
   0.0000000000000000    0.0000000000000000    0.7980690000000001 S
   0.0000000000000000    0.0000000000000000    0.1442160000000000 S
