Cs4 Se2
1.0
   0.0000000000000000    5.2146280000000003   10.6347120000000004
   2.7940290000000001    0.0000000000000000   10.6347120000000004
   2.7940290000000001    5.2146280000000003    0.0000000000000000
Cs Se
4 2
direct
   0.7830560000000000    0.3434420000000000    0.5628099999999999 Cs
   0.3106920000000000    0.5628099999999999    0.3434420000000001 Cs
   0.6871900000000000    0.9393080000000003    0.4669440000000001 Cs
   0.9065579999999999    0.4669440000000001    0.9393080000000001 Cs
   0.0298520000000000    0.9701480000000000    0.9701480000000000 Se
   0.2798520000000000    0.2201480000000000    0.2201480000000000 Se
