Ga4 O8
1.0
   3.0519690000000002    0.0000000000000000    0.0000000000000000
   0.0000000000000000    4.1933840000000000    0.0000000000000000
   0.0000000000000000    0.0000000000000000   10.0218369999999997
Ga O
4 8
direct
   0.2500000000000000    0.0784360000000000    0.3654820000000000 Ga
   0.7500000000000000    0.9215640000000000    0.6345180000000000 Ga
   0.7500000000000000    0.5784360000000000    0.1345180000000000 Ga
   0.2500000000000000    0.4215640000000000    0.8654819999999999 Ga
   0.2500000000000000    0.3053830000000000    0.0613530000000000 O
   0.7500000000000000    0.6946170000000000    0.9386470000000000 O
   0.7500000000000000    0.8053830000000000    0.4386470000000000 O
   0.2500000000000000    0.1946170000000000    0.5613530000000000 O
   0.2500000000000000    0.8484230000000000    0.1929970000000000 O
   0.7500000000000000    0.1515770000000000    0.8070030000000000 O
   0.7500000000000000    0.3484230000000000    0.3070030000000000 O
   0.2500000000000000    0.6515770000000000    0.6929970000000000 O
