K1 Hg3
1.0
   5.0693560000000000    0.0000000000000000    0.0000000000000000
   0.0000000000000000    5.0693560000000000    0.0000000000000000
   0.0000000000000000    0.0000000000000000    5.0693560000000000
K Hg
1 3
direct
   0.0000000000000000    0.0000000000000000    0.0000000000000000 K
   0.0000000000000000    0.5000000000000000    0.5000000000000000 Hg
   0.5000000000000000    0.0000000000000000    0.5000000000000000 Hg
   0.5000000000000000    0.5000000000000000    0.0000000000000000 Hg
