Ag4 F6
1.0
   5.6642049999999999   -2.9393280000000002    0.0000000000000000
   5.6642049999999999    2.9393280000000002    0.0000000000000000
   4.1388980000000002    0.0000000000000000    4.8571999999999997
Ag F
4 6
direct
   0.8476770000000000    0.8476770000000001    0.8476769999999999 Ag
   0.6523230000000000    0.6523230000000000    0.6523230000000000 Ag
   0.3476770000000001    0.3476770000000000    0.3476770000000000 Ag
   0.1523230000000000    0.1523230000000000    0.1523230000000000 Ag
   0.2500000000000000    0.5585229999999998    0.9414770000000000 F
   0.9414770000000000    0.2500000000000000    0.5585230000000000 F
   0.5585230000000001    0.9414769999999999    0.2500000000000000 F
   0.4414769999999999    0.0585230000000000    0.7500000000000000 F
   0.0585230000000000    0.7499999999999999    0.4414770000000000 F
   0.7499999999999999    0.4414770000000000    0.0585230000000000 F
