Mo8 O12
1.0
   1.6436599999999999   -5.4233609999999999    0.0000000000000000
   1.6436599999999999    5.4233609999999999    0.0000000000000000
   0.0000000000000000    0.0000000000000000   16.2248529999999995
Mo O
8 12
direct
   0.6328440000000000    0.3671560000000000    0.0453380000000000 Mo
   0.3671560000000000    0.6328440000000000    0.9546620000000000 Mo
   0.6328440000000000    0.3671560000000000    0.4546620000000000 Mo
   0.3671560000000000    0.6328440000000000    0.5453380000000000 Mo
   0.0999320000000000    0.9000680000000001    0.6435619999999999 Mo
   0.9000680000000001    0.0999320000000000    0.3564380000000000 Mo
   0.9000680000000001    0.0999320000000000    0.1435620000000000 Mo
   0.0999320000000000    0.9000680000000001    0.8564380000000000 Mo
   0.0000000000000000    0.0000000000000000    0.5000000000000000 O
   0.0000000000000000    0.0000000000000000    0.0000000000000000 O
   0.4825340000000000    0.5174660000000000    0.8524210000000000 O
   0.5174660000000000    0.4825340000000000    0.1475790000000000 O
   0.5174660000000000    0.4825340000000000    0.3524210000000000 O
   0.4825340000000000    0.5174660000000000    0.6475790000000000 O
   0.7410700000000000    0.2589300000000000    0.9267100000000000 O
   0.2589300000000000    0.7410700000000000    0.0732900000000000 O
   0.2589300000000000    0.7410700000000000    0.4267100000000000 O
   0.7410700000000000    0.2589300000000000    0.5732900000000000 O
   0.1862950000000000    0.8137050000000000    0.7500000000000000 O
   0.8137050000000000    0.1862950000000000    0.2500000000000000 O
