Zn3 N1
1.0
   3.7137880000000001    0.0000000000000000    0.0000000000000000
   0.0000000000000000    3.7137880000000001    0.0000000000000000
   0.0000000000000000    0.0000000000000000    3.7137880000000001
Zn N
3 1
direct
   0.0000000000000000    0.5000000000000000    0.5000000000000000 Zn
   0.5000000000000000    0.0000000000000000    0.5000000000000000 Zn
   0.5000000000000000    0.5000000000000000    0.0000000000000000 Zn
   0.0000000000000000    0.0000000000000000    0.0000000000000000 N
