Cs1 Ba3
1.0
  -3.2464710000000001    3.2464710000000001    6.8033830000000002
   3.2464710000000001   -3.2464710000000001    6.8033830000000002
   3.2464710000000001    3.2464710000000001   -6.8033830000000002
Cs Ba
1 3
direct
   0.0000000000000000    0.0000000000000000    0.0000000000000000 Cs
   0.7500000000000001    0.2500000000000000    0.5000000000000000 Ba
   0.2500000000000000    0.7500000000000001    0.5000000000000001 Ba
   0.5000000000000000    0.5000000000000000    0.0000000000000000 Ba
