B50 N50
1.0
  11.4914631600000003   -0.3458481900000000    0.8399762100000000
  -0.3241407400000000   10.9877226500000003   -0.1136307200000000
   0.7594208099999999   -0.1007209400000000   10.3417340800000002
B N
50 50
direct
   0.1904668000000000    0.3245319500000001    0.5096366500000000 B
   0.8079765100000000    0.8632132700000001    0.1870054700000000 B
   0.6106698300000000    0.8220000700000000    0.0734328600000000 B
   0.9846700900000002    0.8804129500000001    0.2898448800000000 B
   0.0547562100000000    0.0295191700000000    0.0969108300000000 B
   0.5555873899999999    0.0565312500000000    0.4985569599999999 B
   0.3306903300000000    0.4527292600000001    0.3263124299999999 B
   0.7392587100000000    0.2012767700000000    0.7002837599999999 B
   0.0991835400000000    0.0683810300000000    0.8456989199999999 B
   0.5012225600000000    0.5063131199999999    0.6559676900000000 B
   0.7976697599999999    0.6480595600000000    0.5479007500000000 B
   0.0378067700000000    0.0084113300000000    0.6213073700000000 B
   0.4417515300000000    0.5959836300000000    0.4643178100000000 B
   0.4314974400000000    0.6817531400000001    0.6938709799999999 B
   0.5090836800000001    0.1260068600000000    0.6903708299999999 B
   0.7342883999999998    0.8413038300000000    0.6258337099999999 B
   0.7984747500000000    0.9952292700000001    0.8012463599999999 B
   0.5323318800000001    0.6132078800000000    0.9509396799999998 B
   0.1314037400000000    0.3948314000000001    0.3071290500000000 B
   0.1265563900000000    0.4040000700000000    0.1487158900000000 B
   0.6652852700000000    0.6610906600000002    0.4579399299999999 B
   0.9107961500000001    0.1799201400000000    0.8887759099999999 B
   0.7651625599999999    0.3191086000000001    0.8071069499999999 B
   0.4440399900000001    0.9094492300000001    0.6965812000000000 B
   0.5892465800000001    0.1755326600000000    0.8847633899999998 B
   0.2111229300000000    0.4410923500000000    0.6883701299999999 B
   0.9854570600000001    0.3008080200000000    0.4584359600000000 B
   0.0883593200000000    0.5500462200000001    0.7368419199999999 B
   0.8884043299999999    0.0700148600000000    0.2540212800000000 B
   0.0446039200000000    0.1759098400000000    0.6429836899999999 B
   0.2829382200000001    0.8008432300000001    0.5886950199999998 B
   0.7016872900000000    0.0737418600000000    0.1877915300000000 B
   0.6710347700000001    0.4668953500000000    0.9907992299999998 B
   0.3383259000000000    0.2604140600000000    0.6606755600000001 B
   0.6056725500000000    0.0571678100000000    0.0783793900000000 B
   0.0932538100000000    0.9017849300000000    0.5112693499999998 B
   0.1212700300000000    0.7483811000000000    0.4257211100000000 B
   0.8823836100000000    0.6146329000000000    0.7411270699999999 B
   0.0025873100000000    0.5405619600000001    0.4217373799999999 B
   0.6532665300000001    0.5911050400000001    0.7315318099999999 B
   0.7834986200000001    0.5490053200000000    0.4071642499999999 B
   0.8494838499999999    0.1514745700000000    0.5771983900000000 B
   0.2118008700000000    0.5727511500000000    0.4851258199999999 B
   0.6754360600000001    0.6695796400000001    0.1027047700000000 B
   0.7550221100000000    0.5003359700000000    0.1975634300000000 B
   0.5007578700000000    0.9278148400000000    0.9333396200000000 B
   0.0695679900000000    0.3688411400000000    0.9094504399999999 B
   0.7136072500000001    0.1553593100000000    0.3256434899999999 B
   0.5267006000000001    0.6553740700000000    0.7997325999999998 B
   0.4724252100000000    0.4529901199999999    0.1056556300000000 B
   0.7113125300000002    0.7938159600000001    0.1371373800000000 N
   0.1313410100000000    0.4499657899999999    0.8069612299999999 N
   0.3436278999999999    0.0049728600000000    0.2874592400000000 N
   0.7644800300000000    0.4613939900000000    0.3111374000000000 N
   0.4183588000000000    0.5734846800000000    0.6138646999999999 N
   0.7997940700000000    0.9987980900000000    0.1914751399999999 N
   0.0929337800000000    0.3904509899999999    0.0383176900000000 N
   0.5716196199999999    0.6975790500000000    0.0430856300000000 N
   0.7546966600000000    0.9091998000000000    0.7270980000000000 N
   0.6205189400000000    0.1363559900000000    0.4282906399999999 N
   0.4521221200000001    0.9192662800000000    0.8299574199999999 N
   0.2218376600000000    0.7187675099999999    0.9432934299999998 N
   0.9449543900000000    0.0879138100000000    0.6186936100000000 N
   0.7393295600000001    0.3923992700000001    0.9032816799999999 N
   0.5427316799999999    0.4806365000000001    0.9887608300000000 N
   0.0156932800000000    0.4126237800000001    0.3841099500000000 N
   0.5553304000000001    0.6400519099999999    0.4237817599999999 N
   0.1921969400000000    0.8188308000000000    0.5248111799999999 N
   0.9906436600000001    0.2694960200000000    0.8793032799999999 N
   0.9891999600000001    0.6164996200000000    0.7634100699999999 N
   0.8358016400000000    0.0815752600000000    0.8789924099999997 N
   0.3792929700000000    0.7951718300000000    0.6515007699999998 N
   0.2143356700000000    0.7416065900000000    0.0491023600000000 N
   0.7285175300000000    0.7627791800000001    0.5245165799999999 N
   0.2660903900000000    0.3374023400000000    0.6156929799999999 N
   0.0098897200000000    0.0221468000000000    0.2260133400000000 N
   0.2251936100000000    0.3670340400000001    0.3775074699999999 N
   0.7790049900000000    0.6195073999999999    0.6933130299999999 N
   0.0603756800000000    0.8536817000000000    0.3907376499999999 N
   0.3317845000000000    0.5617032500000000    0.4094663299999999 N
   0.8897340700000002    0.2127259100000000    0.4509719699999999 N
   0.5627338700000001    0.9328682900000002    0.0395318900000000 N
   0.6160007700000000    0.1681659300000000    0.7483391699999999 N
   0.5704567900000002    0.1540180600000000    0.0075641900000000 N
   0.0715423000000000    0.2737915800000000    0.5506146200000001 N
   0.0925087900000000    0.0365782700000000    0.9692289299999999 N
   0.4136042500000000    0.1969896300000000    0.7039188699999999 N
   0.4051893899999999    0.4280225300000000    0.2122199200000000 N
   0.8879347600000002    0.5876770900000000    0.4589744900000000 N
   0.1827431800000000    0.5484392200000001    0.6206490299999999 N
   0.3011435800000000    0.1667881700000000    0.0623957600000000 N
   0.5980134099999999    0.4765455600000000    0.6972090599999999 N
   0.7231699200000000    0.5492107700000000    0.0873686800000000 N
   0.8960204400000001    0.8116122700000001    0.2471299100000000 N
   0.1135938700000000    0.6199813300000001    0.4191406999999999 N
   0.3029026900000000    0.0685073900000000    0.3634797799999999 N
   0.1095736100000000    0.0849657900000000    0.7123221699999999 N
   0.3151875700000000    0.2468820800000000    0.9971302199999998 N
   0.8403790100000001    0.1728417100000000    0.3362720700000000 N
   0.4981731200000000    0.0066595900000000    0.6132272599999999 N
