Fe6 P3
1.0
   2.9055979999999999   -5.0326440000000003    0.0000000000000000
   2.9055979999999999    5.0326440000000003    0.0000000000000000
   0.0000000000000000    0.0000000000000000    3.4305870000000001
Fe P
6 3
direct
   0.5915319999999999   -0.0000000000000000    0.5000000000000000 Fe
   0.4084679999999999    0.4084680000000000    0.5000000000000000 Fe
  -0.0000000000000001    0.5915319999999999    0.5000000000000000 Fe
  -0.0000000000000000    0.2565560000000000    0.0000000000000000 Fe
   0.7434439999999999    0.7434440000000001    0.0000000000000000 Fe
   0.2565560000000000   -0.0000000000000000    0.0000000000000000 Fe
   0.6666669999999999    0.3333329999999999    0.0000000000000000 P
   0.3333329999999999    0.6666670000000000    0.0000000000000000 P
   0.0000000000000000    0.0000000000000000    0.5000000000000000 P
