Fe10 C4
1.0
   2.2536610000000001    5.8012940000000004    0.0000000000000000
  -2.2536610000000001    5.8012940000000004    0.0000000000000000
   0.0000000000000000    0.6577360000000000    4.9460850000000001
Fe C
10 4
direct
   0.1817670000000000    0.0150220000000000    0.5830060000000000 Fe
   0.9849780000000001    0.8182330000000001    0.9169940000000000 Fe
   0.2037970000000000    0.3675770000000000    0.3106120000000000 Fe
   0.6324230000000000    0.7962030000000000    0.1893880000000000 Fe
   0.7962030000000000    0.6324230000000000    0.6893880000000000 Fe
   0.3675770000000000    0.2037970000000000    0.8106120000000000 Fe
   0.0150220000000000    0.1817670000000000    0.0830060000000000 Fe
   0.8182330000000000    0.9849780000000000    0.4169940000000000 Fe
   0.5672250000000001    0.4327750000000000    0.7500000000000000 Fe
   0.4327750000000001    0.5672250000000001    0.2500000000000000 Fe
   0.2014100000000000    0.5724750000000000    0.5787110000000000 C
   0.4275250000000000    0.7985900000000001    0.9212889999999999 C
   0.7985900000000000    0.4275250000000000    0.4212890000000000 C
   0.5724750000000000    0.2014100000000000    0.0787110000000000 C
