Ga12 Cl28
1.0
   9.1156699999999997    0.0000000000000000    0.0000000000000000
   0.0000000000000000   10.7784089999999999    0.0000000000000000
   0.0000000000000000    0.0000000000000000   12.0659989999999997
Ga Cl
12 28
direct
   0.8579030000000000    0.1241330000000000    0.3906270000000000 Ga
   0.0695760000000000    0.9996760000000000    0.6737200000000000 Ga
   0.4304240000000000    0.9996760000000000    0.1737200000000000 Ga
   0.6176770000000000    0.7599389999999999    0.6142540000000000 Ga
   0.9304240000000000    0.4996760000000000    0.3262800000000000 Ga
   0.3823230000000000    0.2599390000000000    0.3857460000000000 Ga
   0.8823230000000001    0.7599389999999999    0.1142540000000000 Ga
   0.5695760000000000    0.4996760000000000    0.8262800000000000 Ga
   0.3579030000000000    0.6241330000000000    0.1093730000000000 Ga
   0.1420970000000000    0.6241330000000000    0.6093730000000001 Ga
   0.6420970000000000    0.1241330000000000    0.8906270000000001 Ga
   0.1176770000000000    0.2599390000000000    0.8857460000000000 Ga
   0.9527380000000001    0.3414840000000000    0.2160240000000000 Cl
   0.1272880000000000    0.6148640000000000    0.3451620000000000 Cl
   0.2034140000000000    0.3147650000000000    0.4941280000000000 Cl
   0.7394050000000000    0.6319040000000000    0.7426760000000000 Cl
   0.0202590000000000    0.4078720000000000    0.7890390000000002 Cl
   0.8350470000000000    0.4458950000000000    0.4839140000000001 Cl
   0.6649530000000000    0.4458950000000000    0.9839140000000000 Cl
   0.0430930000000000    0.6385680000000000    0.0333960000000000 Cl
   0.7965860000000000    0.8147650000000000    0.5058720000000000 Cl
   0.4797410000000000    0.4078720000000000    0.2890390000000000 Cl
   0.7605950000000001    0.6319040000000000    0.2426760000000000 Cl
   0.5430930000000000    0.1385680000000000    0.4666040000000001 Cl
   0.5202590000000000    0.9078720000000000    0.7109610000000000 Cl
   0.0472620000000000    0.8414840000000000    0.7839760000000000 Cl
   0.3727120000000000    0.6148640000000000    0.8451620000000000 Cl
   0.7034140000000000    0.8147650000000000    0.0058720000000000 Cl
   0.2605950000000000    0.1319040000000000    0.2573240000000001 Cl
   0.9797410000000001    0.9078720000000000    0.2109610000000000 Cl
   0.3350470000000000    0.9458950000000000    0.0160860000000000 Cl
   0.9569069999999998    0.1385680000000000    0.9666040000000001 Cl
   0.8727120000000000    0.1148640000000000    0.6548380000000000 Cl
   0.6272880000000000    0.1148640000000000    0.1548380000000000 Cl
   0.2394050000000000    0.1319040000000000    0.7573240000000000 Cl
   0.4527380000000000    0.8414840000000000    0.2839760000000000 Cl
   0.1649530000000000    0.9458950000000000    0.5160860000000000 Cl
   0.4569070000000001    0.6385680000000000    0.5333960000000000 Cl
   0.2965860000000000    0.3147650000000000    0.9941280000000001 Cl
   0.5472620000000000    0.3414840000000000    0.7160240000000000 Cl
