Zn3 Ni1
1.0
  -1.8283510000000001    1.8283510000000001    3.9468850000000000
   1.8283510000000001   -1.8283510000000001    3.9468850000000000
   1.8283510000000001    1.8283510000000001   -3.9468850000000000
Zn Ni
3 1
direct
   0.7500000000000000    0.2499999999999999    0.4999999999999999 Zn
   0.2499999999999999    0.7499999999999999    0.4999999999999999 Zn
   0.4999999999999999    0.4999999999999999    0.0000000000000000 Zn
   0.0000000000000000    0.0000000000000000    0.0000000000000000 Ni
