Na2 Au4
1.0
   0.0000000000000000    3.9835739999999999    3.9835739999999999
   3.9835739999999999    0.0000000000000000    3.9835739999999999
   3.9835739999999999    3.9835739999999999    0.0000000000000000
Na Au
2 4
direct
   0.7499999999999999    0.7499999999999999    0.7499999999999999 Na
   0.4999999999999999    0.5000000000000000    0.5000000000000000 Na
   0.1250000000000000    0.6250000000000000    0.1250000000000000 Au
   0.1250000000000000    0.1250000000000000    0.6250000000000000 Au
   0.6250000000000000    0.1250000000000000    0.1250000000000000 Au
   0.1250000000000000    0.1250000000000000    0.1250000000000000 Au
