Mg1 Pd5
1.0
   2.4330319999999999   -4.2141349999999997    0.0000000000000000
   2.4330319999999999    4.2141349999999997    0.0000000000000000
   0.0000000000000000    0.0000000000000000    4.5829620000000002
Mg Pd
1 5
direct
   0.0000000000000000    0.0000000000000000    0.5000000000000000 Mg
   0.6645720000000001   -0.0000000000000000    0.0000000000000000 Pd
   0.6666670000000000    0.3333330000000000    0.5000000000000000 Pd
   0.3354280000000000    0.3354280000000000    0.0000000000000000 Pd
  -0.0000000000000000    0.6645720000000001    0.0000000000000000 Pd
   0.3333330000000000    0.6666670000000000    0.5000000000000000 Pd
