V18 O34
1.0
   5.5307370000000002   -0.0134100000000000    0.2552650000000000
   2.2002139999999999    6.7232649999999996    0.7943180000000000
  -0.7374200000000000    0.1449660000000000   14.7515959999999993
V O
18 34
direct
   0.3278249999999999    0.9141319999999999    0.7325309999999999 V
   0.6697479999999999    0.0817900000000000    0.2728139999999999 V
   0.7429219999999997    0.1192090000000000    0.8407360000000000 V
   0.2498779999999999    0.8961549999999999    0.1586360000000000 V
   0.3283730000000000    0.4168300000000000    0.7287639999999999 V
   0.6731100000000000    0.5851389999999999    0.2756260000000000 V
   0.9150069999999998    0.2015040000000000    0.6140180000000000 V
   0.0883280000000000    0.7958750000000000    0.3846480000000000 V
   0.2419870000000000    0.4054120000000000    0.1607170000000000 V
   0.7448199999999998    0.6165830000000000    0.8363940000000000 V
   0.7974579999999998    0.6949170000000000    0.0392310000000000 V
   0.1877679999999999    0.3180470000000000    0.9570130000000000 V
   0.9213930000000000    0.7011099999999999    0.6090040000000001 V
   0.0901540000000000    0.2912020000000000    0.3868480000000000 V
   0.8035539999999999    0.1939280000000000    0.0440160000000000 V
   0.1893750000000000    0.8132710000000000    0.9585260000000000 V
   0.4967660000000000    0.9963579999999997    0.4997180000000000 V
   0.5068939999999998    0.4960120000000001    0.5007750000000000 V
   0.1472360000000000    0.1951560000000000    0.0946680000000000 O
   0.8428269999999998    0.8143260000000000    0.9065250000000000 O
   0.9576769999999998    0.0694960000000000    0.7492520000000000 O
   0.0232369999999999    0.9290460000000000    0.2590410000000000 O
   0.1989570000000000    0.0049320000000000    0.4170260000000001 O
   0.8018239999999998    0.9763579999999999    0.5836420000000000 O
   0.1957739999999999    0.5399070000000000    0.0209470000000000 O
   0.7924660000000000    0.4611109999999999    0.9780860000000001 O
   0.7305749999999996    0.9545649999999999    0.3940850000000000 O
   0.2547849999999999    0.0499370000000000    0.6045879999999999 O
   0.5662739999999998    0.3563600000000000    0.6256910000000001 O
   0.4515650000000000    0.6276110000000000    0.3700860000000001 O
   0.7964209999999999    0.2982580000000000    0.3055710000000000 O
   0.2218130000000000    0.6851159999999999    0.6933270000000000 O
   0.6277519999999999    0.4004449999999999    0.8056219999999999 O
   0.3753549999999999    0.5923280000000000    0.1923620000000000 O
   0.1488280000000000    0.6644199999999999    0.5079270000000000 O
   0.8617570000000000    0.3233050000000000    0.4899650000000000 O
   0.4717190000000000    0.8145779999999999    0.0458170000000000 O
   0.5427979999999998    0.1869600000000000    0.9551629999999999 O
   0.0370300000000000    0.1161780000000000    0.9311360000000000 O
   0.9606749999999998    0.8963949999999999    0.0704690000000000 O
   0.4378400000000000    0.1348520000000000    0.7723139999999999 O
   0.5595209999999999    0.8783789999999998    0.2303700000000000 O
   0.3968159999999998    0.7689390000000000    0.8583560000000000 O
   0.6150579999999999    0.2261710000000000    0.1398420000000000 O
   0.0295450000000000    0.4257360000000000    0.6515840000000001 O
   0.9705589999999998    0.5791929999999998    0.3468100000000000 O
   0.3701560000000000    0.2967590000000000    0.4591110000000000 O
   0.6229679999999997    0.6999360000000000    0.5361710000000000 O
   0.3082349999999999    0.2522590000000000    0.2765710000000001 O
   0.7076399999999999    0.7387349999999999    0.7247080000000000 O
   0.1119009999999999    0.4538320000000000    0.8410150000000000 O
   0.8870579999999999    0.5509429999999998    0.1621400000000000 O
