Ti33 Se12
1.0
   1.7201120000000001   12.7995230000000006    0.0000000000000000
  -1.7201120000000001   12.7995230000000006    0.0000000000000000
   0.0000000000000000    9.0078099999999992   17.0283370000000005
Ti Se
33 12
direct
   0.0000000000000000    0.0000000000000000    0.0000000000000000 Ti
   0.0828620000000000    0.0828620000000000    0.0633080000000000 Ti
   0.9171380000000000    0.9171380000000000    0.9366920000000000 Ti
   0.2113240000000000    0.2113240000000000    0.0702780000000000 Ti
   0.7886760000000000    0.7886760000000000    0.9297219999999999 Ti
   0.8011700000000000    0.8011700000000000    0.0997490000000000 Ti
   0.1988300000000001    0.1988300000000001    0.9002510000000000 Ti
   0.4031680000000001    0.4031680000000001    0.0647540000000000 Ti
   0.5968320000000001    0.5968320000000001    0.9352460000000000 Ti
   0.4876090000000001    0.4876090000000001    0.1253320000000000 Ti
   0.5123910000000002    0.5123910000000002    0.8746680000000000 Ti
   0.5976469999999999    0.5976469999999999    0.1657880000000000 Ti
   0.4023530000000001    0.4023530000000001    0.8342120000000000 Ti
   0.8822510000000002    0.8822510000000002    0.1985290000000000 Ti
   0.1177490000000000    0.1177490000000000    0.8014709999999999 Ti
   0.9973030000000002    0.9973030000000002    0.2462130000000000 Ti
   0.0026970000000000    0.0026970000000000    0.7537870000000000 Ti
   0.1177670000000000    0.1177670000000000    0.2887350000000000 Ti
   0.8822330000000002    0.8822330000000002    0.7112650000000000 Ti
   0.7219070000000001    0.7219070000000001    0.2936620000000000 Ti
   0.2780930000000000    0.2780930000000000    0.7063380000000000 Ti
   0.2893420000000000    0.2893420000000000    0.3455600000000000 Ti
   0.7106580000000000    0.7106580000000000    0.6544400000000000 Ti
   0.8547370000000000    0.8547370000000000    0.3964420000000000 Ti
   0.1452630000000000    0.1452630000000000    0.6035580000000000 Ti
   0.1603620000000000    0.1603620000000000    0.4171790000000000 Ti
   0.8396380000000001    0.8396380000000001    0.5828210000000000 Ti
   0.5679959999999999    0.5679959999999999    0.4284850000000000 Ti
   0.4320040000000002    0.4320040000000002    0.5715150000000000 Ti
   0.9762170000000001    0.9762170000000001    0.4333300000000000 Ti
   0.0237830000000000    0.0237830000000000    0.5666700000000000 Ti
   0.7294480000000001    0.7294480000000001    0.4656009999999999 Ti
   0.2705520000000000    0.2705520000000000    0.5343990000000000 Ti
   0.6684060000000002    0.6684060000000002    0.0098480000000000 Se
   0.3315939999999999    0.3315939999999999    0.9901520000000001 Se
   0.6907900000000001    0.6907900000000001    0.1849860000000000 Se
   0.3092100000000000    0.3092100000000000    0.8150139999999999 Se
   0.3035420000000000    0.3035420000000000    0.2013110000000000 Se
   0.6964580000000000    0.6964580000000000    0.7986890000000000 Se
   0.5308929999999999    0.5308929999999999    0.3203620000000000 Se
   0.4691069999999999    0.4691069999999999    0.6796380000000000 Se
   0.4101810000000000    0.4101810000000000    0.2807480000000000 Se
   0.5898190000000001    0.5898190000000001    0.7192520000000000 Se
   0.3907080000000000    0.3907080000000000    0.4681350000000000 Se
   0.6092919999999998    0.6092919999999998    0.5318650000000000 Se
