Tl4 F12
1.0
   5.0360529999999999    0.0000000000000000    0.0000000000000000
   0.0000000000000000    5.9097770000000001    0.0000000000000000
   0.0000000000000000    0.0000000000000000    7.2701849999999997
Tl F
4 12
direct
   0.9607620000000000    0.6293890000000000    0.7500000000000000 Tl
   0.4607620000000000    0.8706110000000000    0.2500000000000000 Tl
   0.5392380000000000    0.1293890000000000    0.7500000000000000 Tl
   0.0392380000000000    0.3706110000000001    0.2500000000000000 Tl
   0.3307990000000000    0.1580580000000000    0.4297090000000000 F
   0.8307990000000000    0.3419420000000001    0.5702909999999999 F
   0.1692010000000000    0.6580580000000000    0.0702910000000000 F
   0.6692010000000000    0.8419420000000000    0.9297090000000000 F
   0.6428100000000000    0.5401680000000000    0.2500000000000000 F
   0.1428100000000000    0.9598320000000000    0.7500000000000000 F
   0.8571899999999999    0.0401680000000000    0.2500000000000000 F
   0.3571900000000000    0.4598320000000000    0.7500000000000000 F
   0.3307990000000000    0.1580580000000000    0.0702910000000000 F
   0.8307990000000000    0.3419420000000001    0.9297090000000000 F
   0.1692010000000000    0.6580580000000000    0.4297090000000000 F
   0.6692010000000000    0.8419420000000000    0.5702909999999999 F
