Nd3 N6
1.0
   2.4413350000000000    6.1628230000000004    0.0000000000000000
  -2.4413350000000000    6.1628230000000004    0.0000000000000000
   0.0000000000000000    2.7842920000000002    5.5601250000000002
Nd N
3 6
direct
   0.3619169999999999    0.3619169999999999    0.9306059999999999 Nd
   0.1781210000000000    0.1781210000000000    0.5284610000000000 Nd
   0.5839340000000000    0.5839340000000000    0.1747870000000000 Nd
   0.1541640000000000    0.1541640000000000    0.1869470000000000 N
   0.6152920000000000    0.6152920000000000    0.7450799999999999 N
   0.8197299999999998    0.8197299999999998    0.8675039999999999 N
   0.3805220000000000    0.3805220000000000    0.2724780000000000 N
   0.6035340000000000    0.6035340000000000    0.5553160000000000 N
   0.9281670000000001    0.9281670000000001    0.7829709999999999 N
