W8
1.0
   5.0888520000000002    0.0000000000000000    0.0000000000000000
   0.0000000000000000    5.0888520000000002    0.0000000000000000
   0.0000000000000000    0.0000000000000000    5.0888520000000002
W
8
direct
   0.2500000000000000    0.0000000000000000    0.5000000000000000 W
   0.7500000000000000    0.0000000000000000    0.5000000000000000 W
   0.0000000000000000    0.5000000000000000    0.2500000000000000 W
   0.0000000000000000    0.5000000000000000    0.7500000000000000 W
   0.5000000000000000    0.7500000000000000    0.0000000000000000 W
   0.5000000000000000    0.2500000000000000    0.0000000000000000 W
   0.0000000000000000    0.0000000000000000    0.0000000000000000 W
   0.5000000000000000    0.5000000000000000    0.5000000000000000 W
