Nb8 O16
1.0
   5.0562379999999996    0.0000000000000000    0.0000000000000000
   0.0000000000000000    5.3574549999999999    0.0000000000000000
   0.0000000000000000    0.0000000000000000    9.9546709999999994
Nb O
8 16
direct
   0.0540390000000000    0.3540640000000000    0.6427310000000001 Nb
   0.4459610000000001    0.8540639999999999    0.6427310000000001 Nb
   0.9459610000000001    0.8540639999999999    0.8572689999999999 Nb
   0.5540390000000001    0.3540640000000000    0.8572689999999999 Nb
   0.4459610000000001    0.6459360000000000    0.1427310000000000 Nb
   0.0540390000000000    0.1459360000000000    0.1427310000000000 Nb
   0.9459610000000001    0.6459360000000000    0.3572690000000000 Nb
   0.5540390000000001    0.1459360000000000    0.3572690000000000 Nb
   0.3237160000000000    0.1564930000000000    0.5312810000000000 O
   0.1762840000000000    0.6564930000000000    0.5312810000000000 O
   0.7427210000000000    0.6009010000000000    0.7141930000000000 O
   0.7572790000000000    0.1009010000000000    0.7141930000000000 O
   0.2427210000000000    0.6009010000000000    0.7858070000000000 O
   0.2572790000000000    0.1009010000000000    0.7858070000000000 O
   0.6762840000000000    0.6564930000000000    0.9687189999999999 O
   0.8237160000000001    0.1564930000000000    0.9687189999999999 O
   0.1762840000000000    0.8435069999999999    0.0312810000000000 O
   0.3237160000000000    0.3435070000000000    0.0312810000000000 O
   0.7427210000000000    0.8990989999999999    0.2141930000000000 O
   0.7572790000000000    0.3990990000000000    0.2141930000000000 O
   0.2427210000000000    0.8990989999999999    0.2858070000000000 O
   0.2572790000000000    0.3990990000000000    0.2858070000000000 O
   0.6762840000000000    0.8435069999999999    0.4687190000000001 O
   0.8237160000000001    0.3435070000000000    0.4687190000000001 O
