Sr1 Pb3
1.0
   5.0519749999999997    0.0000000000000000    0.0000000000000000
   0.0000000000000000    5.0519749999999997    0.0000000000000000
   0.0000000000000000    0.0000000000000000    5.0519749999999997
Sr Pb
1 3
direct
   0.0000000000000000    0.0000000000000000    0.0000000000000000 Sr
   0.0000000000000000    0.5000000000000000    0.5000000000000000 Pb
   0.5000000000000000    0.0000000000000000    0.5000000000000000 Pb
   0.5000000000000000    0.5000000000000000    0.0000000000000000 Pb
