Be12 Pt1
1.0
  -3.6272090000000001    3.6272090000000001    2.0854849999999998
   3.6272090000000001   -3.6272090000000001    2.0854849999999998
   3.6272090000000001    3.6272090000000001   -2.0854849999999998
Be Pt
12 1
direct
   0.3483020000000001    0.0000000000000000    0.3483020000000001 Be
   0.5000000000000000    0.0000000000000000   -0.0000000000000000 Be
   0.0000000000000001    0.3483020000000001    0.3483020000000001 Be
   0.2751900000000003    0.5000000000000001    0.7751900000000002 Be
   0.6516980000000001    0.0000000000000001    0.6516980000000001 Be
   0.5000000000000002    0.5000000000000001    0.5000000000000001 Be
   0.0000000000000002    0.6516980000000001    0.6516980000000001 Be
   0.5000000000000002    0.7248100000000002    0.2248100000000001 Be
   0.7248100000000002    0.5000000000000002    0.2248100000000001 Be
   0.0000000000000001   -0.0000000000000000    0.5000000000000001 Be
   0.5000000000000002    0.2751900000000002    0.7751900000000003 Be
   0.0000000000000001    0.5000000000000001    0.0000000000000000 Be
   0.0000000000000000    0.0000000000000000    0.0000000000000000 Pt
