Al40 O60
1.0
  10.5441207699999993    0.4972134600000000    0.0882548900000000
   0.4940777800000000   10.3794328599999996   -0.1418203100000000
   0.0903075900000000   -0.1416372800000000   10.3412393100000006
Al O
40 60
direct
   0.9788944199999999    0.2445738400000000    0.6089210000000000 Al
   0.5924401600000001    0.6310662900000000    0.3761080300000000 Al
   0.2177447300000000    0.2620543600000000    0.1829818000000000 Al
   0.2519934200000000    0.5052731800000000    0.9783942800000001 Al
   0.5721975900000000    0.6345616899999998    0.6370949300000001 Al
   0.9128982999999999    0.3477100100000000    0.1373694900000000 Al
   0.2044809700000000    0.9960065800000000    0.9220618800000000 Al
   0.1722364900000000    0.6889306999999999    0.2523769100000000 Al
   0.9342663900000000    0.8671400099999999    0.8682674700000000 Al
   0.8588234000000000    0.7100412299999999    0.3302285600000001 Al
   0.0019828700000000    0.4744252799999999    0.7684724700000000 Al
   0.4810928400000001    0.8785181399999999    0.4556337000000000 Al
   0.9946159999999999    0.6281392800000000    0.0644557300000000 Al
   0.2919074400000000    0.5483693200000000    0.4497621400000000 Al
   0.7978594999999999    0.0433880700000000    0.2589985000000000 Al
   0.5972735500000002    0.3140846600000000    0.6741375800000000 Al
   0.3849062599999999    0.8679499999999999    0.7524423800000000 Al
   0.4909345600000000    0.9675362199999999    0.0206577300000000 Al
   0.3748460000000000    0.4544617100000000    0.6723049200000001 Al
   0.6911872000000001    0.1741951700000000    0.0583889600000000 Al
   0.4345651600000001    0.4557017899999999    0.1977514800000000 Al
   0.1881214599999999    0.9722978100000002    0.5991645200000001 Al
   0.2325445700000000    0.2422856900000000    0.4781534800000001 Al
   0.6372546499999999    0.8001293699999998    0.2040259900000000 Al
   0.7719619800000000    0.4663175600000000    0.9462013500000002 Al
   0.0378341000000000    0.7295473200000000    0.5529532600000001 Al
   0.7968802699999999    0.8273301599999999    0.6382929300000001 Al
   0.3513442400000000    0.1508580000000000    0.7386643400000000 Al
   0.0031076300000000    0.0692670800000000    0.0978758900000000 Al
   0.6623603000000000    0.0960441700000000    0.5207522800000001 Al
   0.9668210400000001    0.9871448899999999    0.4460460400000000 Al
   0.4814934400000000    0.1422258800000000    0.2816835700000000 Al
   0.1185745000000000    0.2908434400000000    0.9153723000000000 Al
   0.2656682100000001    0.9924403599999998    0.2264073600000000 Al
   0.6389153799999999    0.0332286300000000    0.7853195100000000 Al
   0.8310138699999998    0.5343226200000000    0.5924396000000000 Al
   0.9621248400000000    0.3939504200000000    0.3865831700000000 Al
   0.4889100399999999    0.5756166799999999    0.8856800200000000 Al
   0.7180995199999999    0.7482980599999999    0.9157066100000000 Al
   0.6885700400000000    0.3786220599999999    0.3982305300000001 Al
   0.9977601599999998    0.2341785800000000    0.0232321000000000 O
   0.5889651600000000    0.0882724700000000    0.9580608600000002 O
   0.4288952300000000    0.0181741500000000    0.1761567100000000 O
   0.8839450799999999    0.8057003200000000    0.4786938000000000 O
   0.7570365999999998    0.8999477799999998    0.8399035900000001 O
   0.1037572600000000    0.8780914799999998    0.4925548300000001 O
   0.7356044900000001    0.3268227900000000    0.0254336400000000 O
   0.0632029500000000    0.3553107300000000    0.2370728100000000 O
   0.2296482600000000    0.8402931900000002    0.2464925100000000 O
   0.6807513100000000    0.9580095999999999    0.6205148900000002 O
   0.2920400500000000    0.3926161900000000    0.5252741000000000 O
   0.2325410800000000    0.1544001000000000    0.8626245400000001 O
   0.7407345399999999    0.6778170499999999    0.6878815200000001 O
   0.0491174000000000    0.3033150800000000    0.7500038400000000 O
   0.8059660000000000    0.0765665900000000    0.4316349500000001 O
   0.0402983400000000    0.9580457399999999    0.9568705799999999 O
   0.3944337399999999    0.2927726600000000    0.2260530100000000 O
   0.3274082799999999    0.5333943400000000    0.8223985000000001 O
   0.9800037599999999    0.0282570400000000    0.2707923300000001 O
   0.4317038999999999    0.2894599800000000    0.7146552300000000 O
   0.2624747800000001    0.1274432300000000    0.5971271900000000 O
   0.0948022000000000    0.4800528900000000    0.9037027199999998 O
   0.4108801300000000    0.5831785099999999    0.5639100200000000 O
   0.8535285099999997    0.3567586099999999    0.5500426500000000 O
   0.1476274200000000    0.6427652500000000    0.4369574600000000 O
   0.6094837700000000    0.8330185999999999    0.0392321000000000 O
   0.1655137500000000    0.6288939000000000    0.0772248300000000 O
   0.0116076400000000    0.0779865900000000    0.5892866200000000 O
   0.9929871600000002    0.7012068799999999    0.2251690300000000 O
   0.1816029400000000    0.0837038900000000    0.1042587700000000 O
   0.9983822900000001    0.5799588399999999    0.6410834000000000 O
   0.8314334500000001    0.0739948100000000    0.0883803100000000 O
   0.5227246500000000    0.0446928800000000    0.4261701300000000 O
   0.3126932100000001    0.5566177899999999    0.2805027200000000 O
   0.5606545900000001    0.4777541699999999    0.7341939300000000 O
   0.0730936100000000    0.2974534100000000    0.4783845100000001 O
   0.8919719800000000    0.7308652700000000    0.9593166499999999 O
   0.8907819799999999    0.5007567100000000    0.0645920100000000 O
   0.6517870599999999    0.5977806199999999    0.9438393700000001 O
   0.2130343700000000    0.9170365400000000    0.7609063300000000 O
   0.7178877099999998    0.6533848700000001    0.2613126200000000 O
   0.5634288899999998    0.4711303200000000    0.3033804700000001 O
   0.9590673599999999    0.8255893399999998    0.7039825900000000 O
   0.6105688500000001    0.2712851800000000    0.5011743600000000 O
   0.2367414100000000    0.3415838100000000    0.0339700000000000 O
   0.4694128200000000    0.0176282600000000    0.7558595700000001 O
   0.2590210700000000    0.1453892400000000    0.3300408700000000 O
   0.7615854299999999    0.8818154300000000    0.2615894800000000 O
   0.8270876900000002    0.3397819999999999    0.2917440400000000 O
   0.6706028600000000    0.5231746100000001    0.5073008300000001 O
   0.4999582100000000    0.7827730499999999    0.3015372200000000 O
   0.8990880200000001    0.5588437500000000    0.4210945700000000 O
   0.4253666699999999    0.5148763999999999    0.0367319400000000 O
   0.6882168199999998    0.1768665400000000    0.7186859900000000 O
   0.3589878000000000    0.9105633200000000    0.9445372600000000 O
   0.5846706199999999    0.7498677800000001    0.5127675000000002 O
   0.3556681100000000    0.8816882399999999    0.5708481800000000 O
   0.8377665599999998    0.4648470300000000    0.7900402000000000 O
   0.6413367700000000    0.1551223400000000    0.2250583800000000 O
   0.4905919399999999    0.7240535299999999    0.7817321800000000 O
