Mo1 Cl6
1.0
   3.2230500000000002   -5.5824870000000004    0.0000000000000000
   3.2230500000000002    5.5824870000000004    0.0000000000000000
   0.0000000000000000    0.0000000000000000    5.8550890000000004
Mo Cl
1 6
direct
   0.0000000000000000    0.0000000000000000    0.5000000000000000 Mo
   0.2929160000000000    0.2929160000000000    0.2731060000000000 Cl
  -0.0000000000000000    0.7070840000000000    0.2731060000000000 Cl
   0.7070839999999999   -0.0000000000000001    0.2731060000000000 Cl
   0.0000000000000000    0.2929160000000000    0.7268940000000000 Cl
   0.2929160000000000   -0.0000000000000000    0.7268940000000000 Cl
   0.7070839999999999    0.7070839999999999    0.7268940000000000 Cl
