Tb3 Pr1
1.0
   1.8254670000000000   -3.1618019999999998    0.0000000000000000
   1.8254670000000000    3.1618019999999998    0.0000000000000000
   0.0000000000000000    0.0000000000000000   11.6639309999999998
Tb Pr
3 1
direct
   0.3333330000000001    0.6666670000000000    0.5000000000000000 Tb
   0.0000000000000000    0.0000000000000000    0.2553050000000001 Tb
   0.0000000000000000    0.0000000000000000    0.7446950000000000 Tb
   0.3333330000000001    0.6666670000000000    0.0000000000000000 Pr
