Rb2 N6
1.0
  -3.2317429999999998    3.2317429999999998    3.8475839999999999
   3.2317429999999998   -3.2317429999999998    3.8475839999999999
   3.2317429999999998    3.2317429999999998   -3.8475839999999999
Rb N
2 6
direct
   0.7500000000000001    0.7500000000000001    0.0000000000000000 Rb
   0.2500000000000000    0.2500000000000000    0.0000000000000000 Rb
  -0.0000000000000000    0.5000000000000000    0.5000000000000000 N
   0.5000000000000000    0.0000000000000000    0.5000000000000000 N
   0.1302370000000000    0.6302370000000002    0.7604740000000000 N
   0.8697630000000000    0.3697630000000001    0.2395260000000000 N
   0.6302370000000002    0.8697630000000001    0.5000000000000000 N
   0.3697630000000000    0.1302370000000000    0.5000000000000000 N
