Re4 F24
1.0
   5.0165970000000000    0.0000000000000000    0.0000000000000000
   0.0000000000000000    8.6870069999999995    0.0000000000000000
   0.0000000000000000    0.0000000000000000    9.4848780000000001
Re F
4 24
direct
   0.9194680000000000    0.7499999999999999    0.6293900000000001 Re
   0.0805320000000000    0.2500000000000000    0.3706100000000001 Re
   0.4194680000000000    0.2500000000000000    0.8706100000000001 Re
   0.5805320000000000    0.7499999999999999    0.1293900000000000 Re
   0.2218020000000000    0.7499999999999999    0.5149600000000000 F
   0.7781979999999999    0.2500000000000000    0.4850400000000001 F
   0.7218020000000001    0.2500000000000000    0.9850400000000001 F
   0.2781980000000000    0.7499999999999999    0.0149600000000000 F
   0.6171990000000001    0.7499999999999999    0.7444120000000000 F
   0.3828010000000000    0.2500000000000000    0.2555880000000000 F
   0.1171990000000000    0.2500000000000000    0.7555880000000000 F
   0.8828010000000001    0.7499999999999999    0.2444120000000000 F
   0.7647190000000000    0.5981559999999999    0.5167240000000000 F
   0.2352810000000000    0.4018440000000000    0.4832760000000000 F
   0.2647190000000000    0.4018440000000000    0.9832760000000001 F
   0.2352810000000000    0.0981560000000000    0.4832760000000000 F
   0.7352810000000000    0.5981559999999999    0.0167240000000000 F
   0.7647190000000000    0.9018440000000000    0.5167240000000000 F
   0.7352810000000000    0.9018440000000000    0.0167240000000000 F
   0.2647190000000000    0.0981560000000000    0.9832760000000001 F
   0.0728450000000000    0.5977299999999999    0.7418320000000002 F
   0.9271550000000001    0.4022700000000000    0.2581680000000000 F
   0.5728450000000000    0.4022700000000000    0.7581680000000000 F
   0.9271550000000001    0.0977300000000000    0.2581680000000000 F
   0.4271550000000001    0.5977299999999999    0.2418320000000000 F
   0.0728450000000000    0.9022700000000000    0.7418320000000002 F
   0.4271550000000001    0.9022700000000000    0.2418320000000000 F
   0.5728450000000000    0.0977300000000000    0.7581680000000000 F
