Pr20 Se38
1.0
   9.3995259999999998    0.0000000000000000    0.0000000000000000
   0.0000000000000000    9.3995259999999998    0.0000000000000000
   0.0000000000000000    0.0000000000000000   17.1778610000000000
Pr Se
20 38
direct
   0.0000000000000000    0.5000000000000000    0.1334230000000000 Pr
   0.0000000000000000    0.5000000000000000    0.6334230000000000 Pr
   0.5000000000000000    0.0000000000000000    0.3665770000000000 Pr
   0.5000000000000000    0.0000000000000000    0.8665770000000000 Pr
   0.3980030000000000    0.3035000000000000    0.6443580000000000 Pr
   0.1965000000000000    0.8980030000000000    0.1443580000000000 Pr
   0.8034999999999999    0.1019970000000000    0.1443580000000000 Pr
   0.6019970000000000    0.6965000000000000    0.6443580000000000 Pr
   0.1019970000000000    0.1965000000000000    0.8556420000000000 Pr
   0.3035000000000000    0.6019970000000000    0.3556420000000000 Pr
   0.6965000000000000    0.3980030000000000    0.3556420000000000 Pr
   0.8980030000000000    0.8034999999999999    0.8556420000000000 Pr
   0.2066440000000000    0.9028820000000000    0.6302100000000000 Pr
   0.5971180000000000    0.7066439999999999    0.1302100000000000 Pr
   0.4028820000000000    0.2933560000000000    0.1302100000000000 Pr
   0.7933560000000000    0.0971180000000000    0.6302100000000000 Pr
   0.2933560000000000    0.5971180000000000    0.8697900000000000 Pr
   0.9028820000000000    0.7933560000000000    0.3697900000000000 Pr
   0.0971180000000000    0.2066440000000000    0.3697900000000000 Pr
   0.7066439999999999    0.4028820000000000    0.8697900000000000 Pr
   0.0000000000000000    0.5000000000000000    0.8144190000000000 Se
   0.0000000000000000    0.5000000000000000    0.3144190000000000 Se
   0.5000000000000000    0.0000000000000000    0.6855810000000000 Se
   0.5000000000000000    0.0000000000000000    0.1855810000000000 Se
   0.3992890000000000    0.3020920000000000    0.3132430000000000 Se
   0.1979080000000000    0.8992890000000001    0.8132430000000000 Se
   0.8020920000000000    0.1007110000000000    0.8132430000000000 Se
   0.6007110000000000    0.6979080000000000    0.3132430000000000 Se
   0.1007110000000000    0.1979080000000000    0.1867570000000000 Se
   0.3020920000000000    0.6007110000000000    0.6867570000000000 Se
   0.6979080000000000    0.3992890000000000    0.6867570000000000 Se
   0.8992890000000001    0.8020920000000000    0.1867570000000000 Se
   0.7989500000000000    0.0976790000000000    0.3213140000000000 Se
   0.4023210000000000    0.2989500000000000    0.8213140000000000 Se
   0.5976790000000000    0.7010500000000000    0.8213140000000000 Se
   0.2010500000000000    0.9023209999999999    0.3213140000000000 Se
   0.7010500000000000    0.4023210000000000    0.1786860000000000 Se
   0.0976790000000000    0.2010500000000000    0.6786860000000000 Se
   0.9023209999999999    0.7989500000000000    0.6786860000000000 Se
   0.2989500000000000    0.5976790000000000    0.1786860000000000 Se
   0.8161650000000000    0.6326610000000000    0.9991830000000002 Se
   0.8673389999999999    0.3161650000000000    0.4991830000000000 Se
   0.1326610000000000    0.6838350000000000    0.4991830000000000 Se
   0.1838350000000000    0.3673390000000000    0.9991830000000002 Se
   0.6838350000000000    0.8673389999999999    0.5008170000000000 Se
   0.6326610000000000    0.1838350000000000    0.0008170000000000 Se
   0.3673390000000000    0.8161650000000000    0.0008170000000000 Se
   0.3161650000000000    0.1326610000000000    0.5008170000000000 Se
   0.0760860000000000    0.7202630000000000    0.0002060000000000 Se
   0.7797370000000000    0.5760860000000000    0.5002060000000000 Se
   0.2202630000000000    0.4239140000000000    0.5002060000000000 Se
   0.9239140000000000    0.2797370000000000    0.0002060000000000 Se
   0.4239140000000000    0.7797370000000000    0.4997940000000001 Se
   0.7202630000000000    0.9239140000000000    0.9997940000000001 Se
   0.2797370000000000    0.0760860000000000    0.9997940000000001 Se
   0.5760860000000000    0.2202630000000000    0.4997940000000001 Se
   0.0000000000000000    0.0000000000000000    0.5000000000000000 Se
   0.5000000000000000    0.5000000000000000    0.0000000000000000 Se
