In3 Pt1
1.0
   4.4424760000000001    0.0000000000000000    0.0000000000000000
   0.0000000000000000    4.4424760000000001    0.0000000000000000
   0.0000000000000000    0.0000000000000000    4.4424760000000001
In Pt
3 1
direct
   0.0000000000000000    0.5000000000000000    0.5000000000000000 In
   0.5000000000000000    0.0000000000000000    0.5000000000000000 In
   0.5000000000000000    0.5000000000000000    0.0000000000000000 In
   0.0000000000000000    0.0000000000000000    0.0000000000000000 Pt
