Cs8 O4
1.0
   5.6304679999999996    0.0000000000000000    0.0000000000000000
   0.0000000000000000    7.3151279999999996    0.0000000000000000
   0.0000000000000000    0.0000000000000000    9.4157469999999996
Cs O
8 4
direct
   0.2500000000000000    0.0247100000000000    0.1398570000000000 Cs
   0.2500000000000000    0.1066370000000000    0.6103330000000000 Cs
   0.7499999999999999    0.3933630000000000    0.1103330000000000 Cs
   0.7499999999999999    0.4752900000000000    0.6398570000000000 Cs
   0.2500000000000000    0.5247100000000000    0.3601430000000000 Cs
   0.2500000000000000    0.6066370000000000    0.8896670000000000 Cs
   0.7499999999999999    0.8933630000000000    0.3896670000000000 Cs
   0.7499999999999999    0.9752900000000000    0.8601430000000000 Cs
   0.7499999999999999    0.2782040000000001    0.4025900000000000 O
   0.2500000000000000    0.2217960000000000    0.9025899999999999 O
   0.7499999999999999    0.7782040000000000    0.0974100000000000 O
   0.2500000000000000    0.7217960000000000    0.5974099999999999 O
