Ba32 Ge172
1.0
 -10.8400370600000002  -10.8400370600000002   10.8400370600000002
 -10.8400370600000002   10.8400370600000002  -10.8400370600000002
  10.8400370600000002  -10.8400370600000002  -10.8400370600000002
Ba Ge
32 172
direct
   0.0000000000000000    0.5000000000000000    0.0000000000000000 Ba
   0.5000000000000000    0.0000000000000000    0.0000000000000000 Ba
  -0.0000000000000000   -0.0000000000000000    0.4999999999999999 Ba
   0.5000000000000000    0.5000000000000000    0.5000000000000000 Ba
   0.0000000000000000    0.5000000000000000    0.5000000000000000 Ba
   0.5000000000000000    0.0000000000000000    0.5000000000000000 Ba
   0.5000000000000000    0.5000000000000000    0.0000000000000000 Ba
   0.0000000000000000    0.0000000000000000    0.0000000000000000 Ba
   0.7556269799999999    0.3778134900000000    0.6278134900000000 Ba
   0.7443730200000001    0.8721865100000000    0.1221865100000000 Ba
   0.7500000000000000    0.1221865100000000    0.3778134900000000 Ba
   0.7500000000000000    0.6278134900000000    0.8721865099999999 Ba
   0.6278134900000000    0.7556269799999999    0.3778134900000000 Ba
   0.1221865100000000    0.7443730199999999    0.8721865100000000 Ba
   0.3778134900000000    0.7500000000000000    0.1221865100000000 Ba
   0.8721865099999999    0.7499999999999999    0.6278134900000000 Ba
   0.3778134900000000    0.6278134900000000    0.7556269799999999 Ba
   0.8721865100000000    0.1221865100000000    0.7443730200000001 Ba
   0.1221865100000000    0.3778134900000000    0.7500000000000000 Ba
   0.6278134900000000    0.8721865100000000    0.7500000000000000 Ba
   0.2443730200000000    0.6221865100000000    0.3721865100000000 Ba
   0.2556269800000000    0.1278134900000000    0.8778134900000000 Ba
   0.2500000000000000    0.8778134900000000    0.6221865100000000 Ba
   0.2500000000000000    0.3721865100000000    0.1278134900000000 Ba
   0.3721865100000000    0.2443730200000000    0.6221865100000000 Ba
   0.8778134900000000    0.2556269800000000    0.1278134900000000 Ba
   0.6221865100000000    0.2500000000000000    0.8778134900000000 Ba
   0.1278134900000000    0.2500000000000000    0.3721865100000000 Ba
   0.6221865100000000    0.3721865100000000    0.2443730200000000 Ba
   0.1278134900000000    0.8778134900000000    0.2556269800000000 Ba
   0.8778134900000000    0.6221865100000000    0.2500000000000001 Ba
   0.3721865100000000    0.1278134900000000    0.2500000000000000 Ba
   0.2500000000000000    0.3750000000000000    0.6250000000000000 Ge
   0.7500000000000000    0.1250000000000000    0.8750000000000000 Ge
   0.6250000000000000    0.2500000000000000    0.3750000000000000 Ge
   0.8750000000000000    0.7500000000000000    0.1250000000000000 Ge
   0.3750000000000000    0.6250000000000000    0.2500000000000000 Ge
   0.1250000000000000    0.8750000000000000    0.7500000000000000 Ge
   0.7500000000000000    0.6250000000000000    0.3750000000000000 Ge
   0.2500000000000000    0.8750000000000000    0.1250000000000000 Ge
   0.3750000000000000    0.7500000000000000    0.6250000000000000 Ge
   0.1250000000000000    0.2500000000000000    0.8750000000000000 Ge
   0.6250000000000000    0.3750000000000000    0.7500000000000000 Ge
   0.8750000000000000    0.1250000000000000    0.2500000000000000 Ge
   0.0000000000000000    0.5000000000000000    0.8165742400000000 Ge
   0.4999999999999999    0.8165742400000000    0.0000000000000000 Ge
   0.8165742400000000   -0.0000000000000000    0.4999999999999999 Ge
   0.6834257600000000    0.6834257600000000    0.6834257600000000 Ge
   0.0000000000000000    0.5000000000000000    0.1834257600000000 Ge
   0.5000000000000000    0.1834257600000000    0.0000000000000000 Ge
   0.1834257600000000   -0.0000000000000000    0.5000000000000000 Ge
   0.3165742400000000    0.3165742400000000    0.3165742400000000 Ge
  -0.0000000000000000    0.4999999999999999    0.3165742400000000 Ge
   0.3165742400000000    0.0000000000000000    0.4999999999999999 Ge
   0.4999999999999999    0.3165742400000000    0.0000000000000000 Ge
   0.1834257600000000    0.1834257600000000    0.1834257600000000 Ge
   0.0000000000000000    0.5000000000000000    0.6834257600000000 Ge
   0.6834257600000000   -0.0000000000000000    0.5000000000000000 Ge
   0.5000000000000000    0.6834257600000000    0.0000000000000000 Ge
   0.8165742400000000    0.8165742400000000    0.8165742400000001 Ge
   0.6857263599999999    0.5010460599999998    0.5049245700000000 Ge
   0.8142736400000000    0.8191982099999999    0.3153197000000000 Ge
   0.5038785099999999    0.9989539400000000    0.1846803000000000 Ge
   0.9961214900000002    0.6808017900000000    0.9950754300000000 Ge
   0.5049245700000000    0.6857263600000000    0.5010460600000000 Ge
   0.3153197000000000    0.8142736400000000    0.8191982099999999 Ge
   0.1846803000000000    0.5038785099999999    0.9989539400000000 Ge
   0.9950754299999999    0.9961214899999999    0.6808017900000000 Ge
   0.5010460599999998    0.5049245699999999    0.6857263600000000 Ge
   0.8191982099999999    0.3153197000000000    0.8142736400000000 Ge
   0.9989539400000000    0.1846802999999999    0.5038785099999999 Ge
   0.6808017899999999    0.9950754299999999    0.9961214900000001 Ge
   0.3142736400000000    0.4989539400000000    0.4950754300000000 Ge
   0.1857263600000000    0.1808017900000000    0.6846803000000000 Ge
   0.4961214899999999    0.0010460600000000    0.8153197000000000 Ge
   0.0038785100000000    0.3191982100000000    0.0049245700000000 Ge
   0.4950754300000000    0.3142736400000000    0.4989539400000000 Ge
   0.6846803000000000    0.1857263600000000    0.1808017900000000 Ge
   0.8153197000000001    0.4961214900000000    0.0010460600000000 Ge
   0.0049245700000000    0.0038785100000000    0.3191982100000000 Ge
   0.4989539400000000    0.4950754300000000    0.3142736400000000 Ge
   0.1808017900000000    0.6846803000000000    0.1857263600000000 Ge
   0.0010460599999999    0.8153197000000001    0.4961214900000000 Ge
   0.3191982100000000    0.0049245700000000    0.0038785100000000 Ge
   0.0010460600000000    0.1857263600000000    0.0049245700000000 Ge
   0.3191982099999999    0.3142736400000000    0.8153197000000000 Ge
   0.4989539400000000    0.0038785100000000    0.6846803000000001 Ge
   0.1808017900000000    0.4961214899999999    0.4950754300000000 Ge
   0.1857263600000000    0.0049245700000000    0.0010460600000000 Ge
   0.3142736400000000    0.8153197000000000    0.3191982099999999 Ge
   0.0038785100000000    0.6846803000000000    0.4989539400000000 Ge
   0.4961214899999999    0.4950754300000000    0.1808017900000000 Ge
   0.0049245700000000    0.0010460600000000    0.1857263600000000 Ge
   0.8153197000000000    0.3191982099999999    0.3142736400000001 Ge
   0.6846803000000001    0.4989539400000000    0.0038785100000000 Ge
   0.4950754300000000    0.1808017900000000    0.4961214899999999 Ge
   0.9989539400000000    0.8142736400000000    0.9950754299999999 Ge
   0.6808017899999999    0.6857263600000000    0.1846803000000000 Ge
   0.5010460599999998    0.9961214899999999    0.3153197000000000 Ge
   0.8191982099999999    0.5038785099999999    0.5049245699999999 Ge
   0.8142736400000001    0.9950754300000000    0.9989539400000000 Ge
   0.6857263600000000    0.1846803000000000    0.6808017899999999 Ge
   0.9961214899999999    0.3153197000000000    0.5010460600000000 Ge
   0.5038785099999999    0.5049245699999999    0.8191982100000000 Ge
   0.9950754299999998    0.9989539399999999    0.8142736400000000 Ge
   0.1846803000000000    0.6808017900000000    0.6857263600000000 Ge
   0.3153197000000000    0.5010460600000000    0.9961214899999999 Ge
   0.5049245699999999    0.8191982099999999    0.5038785099999999 Ge
   0.9026026300000001    0.0564722400000000    0.3471863700000000 Ge
   0.5973973700000000    0.4445837300000000    0.6538696100000000 Ge
   0.7907141199999999    0.4435277599999999    0.8461303900000001 Ge
   0.7092858800000000    0.0554162700000000    0.1528136300000000 Ge
   0.3471863700000001    0.9026026300000001    0.0564722400000000 Ge
   0.6538696100000000    0.5973973700000000    0.4445837300000000 Ge
   0.8461303899999999    0.7907141199999997    0.4435277600000000 Ge
   0.1528136300000000    0.7092858800000000    0.0554162700000000 Ge
   0.0564722400000000    0.3471863700000000    0.9026026300000000 Ge
   0.4445837300000000    0.6538696100000000    0.5973973700000000 Ge
   0.4435277600000000    0.8461303900000001    0.7907141200000000 Ge
   0.0554162700000000    0.1528136300000000    0.7092858799999999 Ge
   0.0973973700000000    0.9435277599999999    0.6528136299999999 Ge
   0.4026026299999999    0.5554162699999999    0.3461303900000000 Ge
   0.2092858800000000    0.5564722400000000    0.1538696100000000 Ge
   0.2907141200000001    0.9445837299999998    0.8471863699999999 Ge
   0.6528136299999999    0.0973973699999999    0.9435277599999999 Ge
   0.3461303900000000    0.4026026300000000    0.5554162700000000 Ge
   0.1538696100000000    0.2092858800000000    0.5564722400000000 Ge
   0.8471863699999999    0.2907141200000001    0.9445837299999998 Ge
   0.9435277599999999    0.6528136299999999    0.0973973700000000 Ge
   0.5554162700000000    0.3461303900000000    0.4026026300000000 Ge
   0.5564722400000000    0.1538696100000000    0.2092858800000000 Ge
   0.9445837300000001    0.8471863700000000    0.2907141200000001 Ge
   0.5564722400000000    0.4026026300000000    0.8471863699999999 Ge
   0.9445837300000000    0.0973973700000000    0.1538696099999999 Ge
   0.9435277600000000    0.2907141200000000    0.3461303900000000 Ge
   0.5554162700000000    0.2092858800000000    0.6528136299999999 Ge
   0.4026026300000000    0.8471863699999999    0.5564722400000000 Ge
   0.0973973700000000    0.1538696099999999    0.9445837300000000 Ge
   0.2907141200000000    0.3461303900000000    0.9435277600000000 Ge
   0.2092858800000000    0.6528136299999999    0.5554162700000000 Ge
   0.8471863699999999    0.5564722400000000    0.4026026300000000 Ge
   0.1538696099999999    0.9445837300000000    0.0973973700000000 Ge
   0.3461303900000000    0.9435277600000000    0.2907141200000001 Ge
   0.6528136299999999    0.5554162700000000    0.2092858800000000 Ge
   0.4435277599999999    0.5973973700000000    0.1528136300000000 Ge
   0.0554162700000000    0.9026026300000000    0.8461303900000000 Ge
   0.0564722400000000    0.7092858799999999    0.6538696100000000 Ge
   0.4445837300000000    0.7907141200000000    0.3471863700000000 Ge
   0.5973973700000000    0.1528136300000000    0.4435277600000000 Ge
   0.9026026300000000    0.8461303900000000    0.0554162700000000 Ge
   0.7092858800000000    0.6538696100000000    0.0564722400000000 Ge
   0.7907141199999999    0.3471863699999999    0.4445837300000000 Ge
   0.1528136300000000    0.4435277600000000    0.5973973700000000 Ge
   0.8461303900000000    0.0554162700000000    0.9026026300000000 Ge
   0.6538696100000000    0.0564722400000000    0.7092858799999999 Ge
   0.3471863700000000    0.4445837300000001    0.7907141200000000 Ge
   0.8984102100000000    0.5639435800000000    0.8324316400000000 Ge
   0.6015897900000000    0.9340214300000000    0.1655333800000000 Ge
   0.7684880500000001    0.9360564200000001    0.3344666200000000 Ge
   0.7315119500000000    0.5659785700000000    0.6675683600000000 Ge
   0.8324316400000000    0.8984102099999999    0.5639435800000000 Ge
   0.1655333800000000    0.6015897900000000    0.9340214300000000 Ge
   0.3344666200000000    0.7684880500000000    0.9360564199999999 Ge
   0.6675683600000000    0.7315119500000000    0.5659785700000000 Ge
   0.5639435800000000    0.8324316400000000    0.8984102100000000 Ge
   0.9340214300000000    0.1655333799999999    0.6015897900000000 Ge
   0.9360564199999999    0.3344666199999999    0.7684880500000000 Ge
   0.5659785700000000    0.6675683599999999    0.7315119500000000 Ge
   0.1015897900000000    0.4360564200000000    0.1675683600000000 Ge
   0.3984102100000000    0.0659785700000000    0.8344666199999999 Ge
   0.2315119500000000    0.0639435800000000    0.6655333799999998 Ge
   0.2684880499999999    0.4340214299999999    0.3324316400000000 Ge
   0.1675683600000000    0.1015897900000000    0.4360564200000000 Ge
   0.8344666200000002    0.3984102100000001    0.0659785700000000 Ge
   0.6655333800000000    0.2315119500000000    0.0639435800000000 Ge
   0.3324316400000000    0.2684880500000000    0.4340214300000000 Ge
   0.4360564200000000    0.1675683600000000    0.1015897900000000 Ge
   0.0659785699999999    0.8344666200000000    0.3984102100000000 Ge
   0.0639435800000000    0.6655333800000000    0.2315119500000000 Ge
   0.4340214300000000    0.3324316400000000    0.2684880500000000 Ge
   0.0639435800000000    0.3984102100000000    0.3324316400000000 Ge
   0.4340214300000000    0.1015897900000000    0.6655333800000000 Ge
   0.4360564199999999    0.2684880500000000    0.8344666200000000 Ge
   0.0659785700000000    0.2315119500000000    0.1675683600000000 Ge
   0.3984102100000000    0.3324316399999999    0.0639435800000000 Ge
   0.1015897900000000    0.6655333800000000    0.4340214300000000 Ge
   0.2684880500000000    0.8344666200000000    0.4360564200000000 Ge
   0.2315119500000000    0.1675683600000000    0.0659785700000000 Ge
   0.3324316400000000    0.0639435800000000    0.3984102100000000 Ge
   0.6655333800000000    0.4340214300000000    0.1015897900000000 Ge
   0.8344666200000000    0.4360564200000000    0.2684880500000000 Ge
   0.1675683600000000    0.0659785700000000    0.2315119500000000 Ge
   0.9360564200000000    0.6015897900000000    0.6675683599999999 Ge
   0.5659785699999998    0.8984102099999999    0.3344666200000000 Ge
   0.5639435800000000    0.7315119500000000    0.1655333800000000 Ge
   0.9340214300000000    0.7684880500000000    0.8324316400000000 Ge
   0.6015897900000000    0.6675683600000000    0.9360564200000000 Ge
   0.8984102099999999    0.3344666199999999    0.5659785699999998 Ge
   0.7315119500000000    0.1655333800000000    0.5639435800000000 Ge
   0.7684880500000000    0.8324316400000000    0.9340214300000000 Ge
   0.6675683599999997    0.9360564199999998    0.6015897900000000 Ge
   0.3344666200000000    0.5659785700000000    0.8984102099999999 Ge
   0.1655333800000000    0.5639435800000000    0.7315119500000000 Ge
   0.8324316400000000    0.9340214300000000    0.7684880500000000 Ge
