Fe3 Se4
1.0
   4.5505719999999998    0.0000000000000000    0.0000000000000000
  -2.1912060000000002   -4.7729059999999999    0.0000000000000000
  -2.2352829999999999    0.8208230000000000   -5.0504660000000001
Fe Se
3 4
direct
   0.3208360000000000    0.2687060000000000    0.3623890000000001 Fe
   0.0000000000000000    0.4999999999999999    0.5000000000000000 Fe
   0.6791640000000001    0.7312940000000000    0.6376110000000000 Fe
   0.6662089999999999    0.0259060000000000    0.3058090000000000 Se
   0.1186810000000001    0.3312479999999999    0.9196440000000000 Se
   0.8813189999999999    0.6687520000000000    0.0803560000000000 Se
   0.3337910000000001    0.9740940000000000    0.6941910000000000 Se
