V30 O75
1.0
  11.7237710800000006    0.8700553900000000   -0.1605472100000000
   0.8838880400000000   11.5735580599999999    0.4614834600000000
  -0.1503174800000000    0.4504953800000000   11.9587907900000001
V O
30 75
direct
   0.5230134299999999    0.8056714000000000    0.9959852399999999 V
   0.7822350300000001    0.5479889599999999    0.7260263600000000 V
   0.1327694900000000    0.1405277100000000    0.7022594599999998 V
   0.2498790000000000    0.9353369099999999    0.5211551599999998 V
   0.6672202100000000    0.1694389700000000    0.1915989800000000 V
   0.1767792800000000    0.3989887699999999    0.3784943700000000 V
   0.2448872900000000    0.7482113000000000    0.0935427500000000 V
   0.1378106600000000    0.4554608299999999    0.7151526599999999 V
   0.0471109200000000    0.6478408999999999    0.9259869499999999 V
   0.5868647000000000    0.2113187800000000    0.7725337400000000 V
   0.6407483700000000    0.6542727899999998    0.2425745000000000 V
   0.2616093400000000    0.1316119700000000    0.0947730000000000 V
   0.9780017799999999    0.1014047800000000    0.4415628999999999 V
   0.8408380700000000    0.8349680900000002    0.7019556000000001 V
   0.7216118400000002    0.2567250299999999    0.5143877600000000 V
   0.0761299600000000    0.7233469899999999    0.5369050500000000 V
   0.8619936200000000    0.0969162500000000    0.8431179600000001 V
   0.0422222700000000    0.4691865600000000    0.1343394900000000 V
   0.5686467400000000    0.5832061800000000    0.5163124499999999 V
   0.4247436300000000    0.3450621500000000    0.5111198700000000 V
   0.7701976800000000    0.3891925900000000    0.1624867300000000 V
   0.0220437500000000    0.8672950199999999    0.2708831000000000 V
   0.9659895100000001    0.1636219500000000    0.1128384800000000 V
   0.4526197500000000    0.8242432599999998    0.3929770100000000 V
   0.4870588199999999    0.0684033700000000    0.4297792200000000 V
   0.3611484100000000    0.0767113800000000    0.8955043099999999 V
   0.9146324600000000    0.4639302799999999    0.5092124300000000 V
   0.5468244200000000    0.4178791600000000    0.9763360700000000 V
   0.4361729800000001    0.3136714700000001    0.2192149899999999 V
   0.7759342900000000    0.8964720499999999    0.1135059100000000 V
   0.2130860700000000    0.9990213900000001    0.6427506499999999 O
   0.9142857200000001    0.8182920400000000    0.1987016500000000 O
   0.4632752800000000    0.3038790399999999    0.6442601600000000 O
   0.4986582600000000    0.1129287500000000    0.7822130300000000 O
   0.5093790600000000    0.9483889599999997    0.3323710799999999 O
   0.9374836699999999    0.3667912999999999    0.1395398800000000 O
   0.7167026500000000    0.7622468400000000    0.2454730500000000 O
   0.9107429300000000    0.4838086600000001    0.6580841600000000 O
   0.8042838599999999    0.3720167799999999    0.4921856099999999 O
   0.7808716300000003    0.4728669099999999    0.8450972999999999 O
   0.8442938600000000    0.9555126199999998    0.0115324800000000 O
   0.5876917500000000    0.3101329500000000    0.4561229000000000 O
   0.4026894700000000    0.2042745700000000    0.4558355100000000 O
   0.9919819199999999    0.0254419700000000    0.1702262000000000 O
   0.2802773300000000    0.6211726300000000    0.1589332200000000 O
   0.6056686499999999    0.2023251900000000    0.0680537000000000 O
   0.7090652399999999    0.1300426700000000    0.8565619300000001 O
   0.2493895100000000    0.0323137900000000    0.9781786300000000 O
   0.6614822900000000    0.3298648900000000    0.2400668800000000 O
   0.4001530200000001    0.9683785599999999    0.5107841000000000 O
   0.4697595600000000    0.9567009400000001    0.9425761299999998 O
   0.4947332200000000    0.7239963899999999    0.2965207500000000 O
   0.9633458299999998    0.9641039599999999    0.3733863000000000 O
   0.0600120900000000    0.7464212700000000    0.3896435900000000 O
   0.5221752600000000    0.7350466100000000    0.5192986900000000 O
   0.0459897100000000    0.3966050499999999    0.4598701600000000 O
   0.4630292500000000    0.4094434899999999    0.0981973700000000 O
   0.2762222400000001    0.1337984800000000    0.7716654999999999 O
   0.6430825999999998    0.5681918400000000    0.3972021800000000 O
   0.3735411300000001    0.7939047299999997    0.0489561400000000 O
   0.0767734100000000    0.5340065199999998    0.8328966300000000 O
   0.8783310299999999    0.5910916800000000    0.4419422300000000 O
   0.7192785500000001    0.0143956200000000    0.1951767900000000 O
   0.6668912200000001    0.8481891600000000    0.0368753400000000 O
   0.4554200400000000    0.5044980399999999    0.5082336799999999 O
   0.4945176200000000    0.5408267499999999    0.9116767099999999 O
   0.3717547600000000    0.3990622599999999    0.3151199700000000 O
   0.1485712100000000    0.8332609300000000    0.1923615300000000 O
   0.8706191099999999    0.9599534300000000    0.7743537300000000 O
   0.1134626400000000    0.1928820699999999    0.1019586400000000 O
   0.5809432500000000    0.6694663500000000    0.1088451800000000 O
   0.0357445400000000    0.1437398900000000    0.5719806300000000 O
   0.6835295200000001    0.2344901600000000    0.6531067900000000 O
   0.3729038500000000    0.1850771100000000    0.9821963000000000 O
   0.1532127700000000    0.0179969700000000    0.4332638400000000 O
   0.1061909300000000    0.5019653500000000    0.2649254500000000 O
   0.9232289599999998    0.1569188200000000    0.9745364300000000 O
   0.1876603400000001    0.7945908599999999    0.5731675200000000 O
   0.2710382499999999    0.3960024500000000    0.5051395700000000 O
   0.8190825400000000    0.2132457500000000    0.1697528000000000 O
   0.8762416200000001    0.1983038200000000    0.7470121500000000 O
   0.9550547299999999    0.7930474400000000    0.6036833500000000 O
   0.5463504400000000    0.3209932999999999    0.8635380900000000 O
   0.7602745400000002    0.5218791799999999    0.2200629100000000 O
   0.5413560100000000    0.7454166000000000    0.8801746299999998 O
   0.1489581699999999    0.4194114400000000    0.0602842000000000 O
   0.9913446100000000    0.1959378700000000    0.3374542400000000 O
   0.0659725000000000    0.0808923100000000    0.8045633699999999 O
   0.7325655600000001    0.8908283299999997    0.6210522800000000 O
   0.6586317800000001    0.5301315200000000    0.6381880500000000 O
   0.9779891500000002    0.6013779599999999    0.0516581500000000 O
   0.2733160800000001    0.4460125600000001    0.7433826399999999 O
   0.6057978000000001    0.0647879200000000    0.5016598100000000 O
   0.1089749200000000    0.3092450299999999    0.7070765300000000 O
   0.1889235100000000    0.2725987500000000    0.3310557599999999 O
   0.6938209799999999    0.4232653300000001    0.0344658600000000 O
   0.2980896900000000    0.0327214600000000    0.1969095700000000 O
   0.1058758900000000    0.5760862400000000    0.5929682300000000 O
   0.8176472000000000    0.1397876800000000    0.4645170299999999 O
   0.1613115900000000    0.7227759499999999    0.9690700799999998 O
   0.3081060000000000    0.8258333899999999    0.3993024400000000 O
   0.3279041300000000    0.2509338500000000    0.1687193200000000 O
   0.9537424300000000    0.7494086999999999    0.8584092299999999 O
   0.5340102500000000    0.1767192500000000    0.2800128100000000 O
   0.7856940599999999    0.6963508399999999    0.7452090600000001 O
