Mg2 Cd2
1.0
   3.1843729999999999    0.0000000000000000    0.0000000000000000
   0.0000000000000000    5.2424270000000002    0.0000000000000000
   0.0000000000000000    0.0000000000000000    5.3036349999999999
Mg Cd
2 2
direct
   0.0000000000000000    0.0000000000000000    0.0860290000000000 Mg
   0.4999999999999999    0.5000000000000000    0.9139709999999999 Mg
   0.4999999999999999    0.0000000000000000    0.5944910000000000 Cd
   0.0000000000000000    0.5000000000000000    0.4055090000000000 Cd
