W24 I72
1.0
  12.6504610000000000    0.0000000000000000    0.0000000000000000
   0.0000000000000000   12.6504610000000000    0.0000000000000000
   0.0000000000000000    0.0000000000000000   25.6622230000000009
W I
24 72
direct
   0.8245039999999999    0.2281320000000000    0.4895670000000000 W
   0.1754960000000000    0.7718679999999999    0.9895670000000000 W
   0.7281320000000000    0.6754960000000000    0.2395670000000000 W
   0.2718680000000000    0.3245040000000000    0.7395670000000000 W
   0.7718679999999999    0.1754960000000000    0.0104330000000000 W
   0.2281320000000000    0.8245039999999999    0.5104330000000000 W
   0.6754960000000000    0.7281320000000000    0.7604330000000000 W
   0.3245040000000000    0.2718680000000000    0.2604330000000000 W
   0.8251199999999999    0.4242259999999999    0.4899940000000000 W
   0.1748800000000000    0.5757740000000000    0.9899940000000000 W
   0.9242260000000000    0.6748800000000000    0.2399940000000000 W
   0.0757740000000000    0.3251200000000000    0.7399940000000000 W
   0.5757740000000000    0.1748800000000000    0.0100060000000000 W
   0.4242259999999999    0.8251199999999999    0.5100060000000000 W
   0.6748800000000000    0.9242260000000000    0.7600060000000000 W
   0.3251200000000000    0.0757740000000000    0.2600060000000000 W
   0.8368849999999999    0.3269000000000000    0.5725860000000000 W
   0.1631150000000000    0.6730999999999999    0.0725860000000000 W
   0.8269000000000000    0.6631150000000000    0.3225860000000000 W
   0.1731000000000000    0.3368850000000000    0.8225860000000000 W
   0.6730999999999999    0.1631150000000000    0.9274140000000000 W
   0.3269000000000000    0.8368849999999999    0.4274140000000000 W
   0.6631150000000000    0.8269000000000000    0.6774139999999998 W
   0.3368850000000000    0.1731000000000000    0.1774140000000000 W
   0.6582710000000001    0.3270230000000000    0.4371260000000000 I
   0.3417289999999999    0.6729770000000000    0.9371260000000000 I
   0.8270229999999998    0.8417289999999998    0.1871260000000000 I
   0.1729770000000000    0.1582710000000000    0.6871260000000000 I
   0.6729770000000000    0.3417289999999999    0.0628740000000000 I
   0.3270230000000000    0.6582710000000001    0.5628740000000000 I
   0.8417289999999998    0.8270229999999998    0.8128739999999999 I
   0.1582710000000000    0.1729770000000000    0.3128740000000000 I
   0.6790820000000000    0.4803390000000000    0.5666430000000000 I
   0.3209179999999999    0.5196609999999999    0.0666430000000000 I
   0.9803389999999998    0.8209179999999999    0.3166430000000000 I
   0.0196610000000000    0.1790820000000000    0.8166430000000000 I
   0.5196609999999999    0.3209179999999999    0.9333570000000001 I
   0.4803390000000000    0.6790820000000000    0.4333570000000000 I
   0.8209179999999999    0.9803389999999998    0.6833570000000000 I
   0.1790820000000000    0.0196610000000000    0.1833570000000000 I
   0.6797320000000000    0.1730410000000000    0.5670280000000000 I
   0.3202680000000000    0.8269590000000000    0.0670280000000000 I
   0.6730409999999999    0.8202679999999999    0.3170280000000000 I
   0.3269590000000000    0.1797320000000000    0.8170279999999999 I
   0.8269590000000000    0.3202680000000000    0.9329720000000000 I
   0.1730410000000000    0.6797320000000000    0.4329720000000000 I
   0.8202679999999999    0.6730409999999999    0.6829720000000000 I
   0.1797320000000000    0.3269590000000000    0.1829720000000000 I
   0.9759740000000000    0.3256070000000000    0.4269870000000000 I
   0.0240260000000000    0.6743930000000000    0.9269870000000000 I
   0.8256069999999999    0.5240260000000000    0.1769870000000000 I
   0.1743930000000000    0.4759740000000000    0.6769870000000000 I
   0.6743930000000000    0.0240260000000000    0.0730130000000000 I
   0.3256070000000000    0.9759740000000000    0.5730130000000000 I
   0.5240260000000000    0.8256069999999999    0.8230129999999999 I
   0.4759740000000000    0.1743930000000000    0.3230130000000000 I
   0.9896960000000000    0.4819599999999999    0.5559960000000000 I
   0.0103040000000000    0.5180399999999998    0.0559960000000000 I
   0.9819600000000001    0.5103040000000000    0.3059960000000000 I
   0.0180400000000000    0.4896960000000000    0.8059960000000000 I
   0.5180399999999998    0.0103040000000000    0.9440040000000000 I
   0.4819599999999999    0.9896960000000000    0.4440040000000000 I
   0.5103040000000000    0.9819600000000001    0.6940039999999998 I
   0.4896960000000000    0.0180400000000000    0.1940040000000000 I
   0.9891319999999999    0.1708950000000000    0.5560810000000000 I
   0.0108680000000000    0.8291049999999999    0.0560810000000000 I
   0.6708950000000000    0.5108680000000000    0.3060810000000000 I
   0.3291050000000000    0.4891320000000000    0.8060810000000000 I
   0.8291049999999999    0.0108680000000000    0.9439190000000000 I
   0.1708950000000000    0.9891319999999999    0.4439190000000001 I
   0.5108680000000000    0.6708950000000000    0.6939190000000000 I
   0.4891320000000000    0.3291050000000000    0.1939190000000000 I
   0.8177249999999999    0.0375460000000000    0.4330410000000000 I
   0.1822750000000000    0.9624539999999999    0.9330410000000000 I
   0.5375460000000000    0.6822749999999999    0.1830410000000000 I
   0.4624539999999999    0.3177249999999999    0.6830410000000001 I
   0.9624539999999999    0.1822750000000000    0.0669590000000000 I
   0.0375460000000000    0.8177249999999999    0.5669590000000000 I
   0.6822749999999999    0.5375460000000000    0.8169590000000000 I
   0.3177249999999999    0.4624539999999999    0.3169590000000000 I
   0.8238009999999999    0.6319680000000000    0.4369310000000000 I
   0.1761990000000000    0.3680320000000000    0.9369310000000001 I
   0.1319680000000000    0.6761990000000000    0.1869310000000000 I
   0.8680319999999999    0.3238010000000000    0.6869310000000000 I
   0.3680320000000000    0.1761990000000000    0.0630690000000000 I
   0.6319680000000000    0.8238009999999999    0.5630690000000000 I
   0.6761990000000000    0.1319680000000000    0.8130690000000000 I
   0.3238010000000000    0.8680319999999999    0.3130690000000000 I
   0.1395930000000000    0.8221200000000000    0.6972219999999999 I
   0.8604069999999999    0.1778800000000000    0.1972220000000000 I
   0.3221200000000000    0.3604069999999999    0.4472220000000000 I
   0.6778799999999999    0.6395930000000000    0.9472220000000000 I
   0.1778800000000000    0.8604069999999999    0.8027780000000000 I
   0.8221200000000000    0.1395930000000000    0.3027780000000000 I
   0.3604069999999999    0.3221200000000000    0.5527780000000000 I
   0.6395930000000000    0.6778799999999999    0.0527780000000000 I
