Te6 As4
1.0
   2.0346120000000001    7.5007330000000003    0.0000000000000000
  -2.0346120000000001    7.5007330000000003    0.0000000000000000
   0.0000000000000000    0.9867300000000000   10.0930230000000005
Te As
6 4
direct
   0.9576619999999999    0.9576619999999999    0.2878540000000000 Te
   0.0423380000000000    0.0423380000000000    0.7121459999999999 Te
   0.2179170000000000    0.2179170000000000    0.3355940000000000 Te
   0.7820829999999999    0.7820829999999999    0.6644060000000001 Te
   0.6302029999999998    0.6302029999999998    0.0306720000000000 Te
   0.3697970000000000    0.3697970000000000    0.9693279999999999 Te
   0.3746310000000000    0.3746310000000000    0.4395050000000000 As
   0.6253690000000000    0.6253690000000000    0.5604950000000000 As
   0.7947409999999999    0.7947409999999999    0.1408990000000000 As
   0.2052590000000000    0.2052590000000000    0.8591009999999999 As
