Yb10 Sb6
1.0
   4.5353659999999998   -7.8554849999999998    0.0000000000000000
   4.5353659999999998    7.8554849999999998    0.0000000000000000
   0.0000000000000000    0.0000000000000000    6.8926369999999997
Yb Sb
10 6
direct
  -0.0000000000000000    0.7462690000000000    0.7499999999999999 Yb
   0.0000000000000000    0.2537310000000000    0.2500000000000000 Yb
   0.7462690000000000    0.7462690000000000    0.2500000000000000 Yb
   0.7462690000000000   -0.0000000000000000    0.7499999999999999 Yb
   0.2537310000000000    0.2537310000000000    0.7499999999999999 Yb
   0.2537310000000000    0.0000000000000000    0.2500000000000000 Yb
   0.3333330000000000    0.6666670000000000    0.5000000000000000 Yb
   0.6666670000000000    0.3333330000000000    0.0000000000000000 Yb
   0.6666670000000000    0.3333330000000000    0.5000000000000000 Yb
   0.3333330000000000    0.6666670000000000    0.0000000000000000 Yb
   0.3889710000000001    0.0000000000000000    0.7499999999999999 Sb
   0.3889710000000001    0.3889710000000001    0.2500000000000000 Sb
  -0.0000000000000000    0.6110290000000000    0.2500000000000000 Sb
   0.0000000000000000    0.3889710000000001    0.7499999999999999 Sb
   0.6110290000000000    0.6110290000000000    0.7499999999999999 Sb
   0.6110290000000000   -0.0000000000000000    0.2500000000000000 Sb
