Tc6 Ru2
1.0
   2.7607860000000000   -4.7818220000000000    0.0000000000000000
   2.7607860000000000    4.7818220000000000    0.0000000000000000
   0.0000000000000000    0.0000000000000000    4.3641189999999996
Tc Ru
6 2
direct
   0.1649580000000000    0.3299159999999999    0.2500000000000000 Tc
   0.6700840000000001    0.8350420000000001    0.2500000000000000 Tc
   0.1649580000000000    0.8350420000000000    0.2500000000000000 Tc
   0.8350420000000001    0.6700840000000001    0.7500000000000001 Tc
   0.3299159999999999    0.1649580000000000    0.7500000000000001 Tc
   0.8350420000000000    0.1649580000000000    0.7500000000000001 Tc
   0.3333330000000000    0.6666670000000000    0.7500000000000001 Ru
   0.6666670000000000    0.3333330000000000    0.2500000000000000 Ru
