Gd2 Ag6
1.0
   3.1797990000000000   -5.5075729999999998    0.0000000000000000
   3.1797990000000000    5.5075729999999998    0.0000000000000000
   0.0000000000000000    0.0000000000000000    4.9463390000000000
Gd Ag
2 6
direct
   0.3333330000000000    0.6666670000000000    0.7500000000000000 Gd
   0.6666670000000000    0.3333330000000000    0.2500000000000000 Gd
   0.1556560000000000    0.3113110000000001    0.2500000000000000 Ag
   0.6886890000000000    0.8443440000000001    0.2500000000000000 Ag
   0.1556560000000000    0.8443440000000000    0.2500000000000000 Ag
   0.8443440000000001    0.6886890000000000    0.7500000000000000 Ag
   0.3113110000000001    0.1556560000000000    0.7500000000000000 Ag
   0.8443440000000000    0.1556560000000000    0.7500000000000000 Ag
