B50
1.0
   8.8662500000000009    0.0000000000000000    0.0000000000000000
   0.0000000000000000    8.8662500000000009    0.0000000000000000
   0.0000000000000000    0.0000000000000000    4.9255719999999998
B
50
direct
   0.5000000000000000    0.5000000000000000    0.5000000000000000 B
   0.0000000000000000    0.0000000000000000    0.0000000000000000 B
   0.6285269999999999    0.6285269999999999    0.3925250000000000 B
   0.1285270000000000    0.8714729999999999    0.8925249999999999 B
   0.8714729999999999    0.1285270000000000    0.8925249999999999 B
   0.3714730000000000    0.3714730000000000    0.3925250000000000 B
   0.3714730000000000    0.6285269999999999    0.6074749999999999 B
   0.6285269999999999    0.3714730000000000    0.6074749999999999 B
   0.1285270000000000    0.1285270000000000    0.1074750000000000 B
   0.8714729999999999    0.8714729999999999    0.1074750000000000 B
   0.7456299999999999    0.7456299999999999    0.5739890000000000 B
   0.2456300000000000    0.7543700000000000    0.0739890000000000 B
   0.7543700000000000    0.2456300000000000    0.0739890000000000 B
   0.2543700000000000    0.2543700000000000    0.5739890000000000 B
   0.2543700000000000    0.7456299999999999    0.4260109999999999 B
   0.7456299999999999    0.2543700000000000    0.4260109999999999 B
   0.2456300000000000    0.2456300000000000    0.9260109999999999 B
   0.7543700000000000    0.7543700000000000    0.9260109999999999 B
   0.5857700000000000    0.8297620000000000    0.4057510000000000 B
   0.3297620000000000    0.9142300000000000    0.9057509999999999 B
   0.6702380000000000    0.0857700000000000    0.9057509999999999 B
   0.4142300000000000    0.1702380000000000    0.4057510000000000 B
   0.4142300000000000    0.8297620000000000    0.5942489999999999 B
   0.5857700000000000    0.1702380000000000    0.5942489999999999 B
   0.3297620000000000    0.0857700000000000    0.0942490000000000 B
   0.6702380000000000    0.9142300000000000    0.0942490000000000 B
   0.9142300000000000    0.6702380000000000    0.0942490000000000 B
   0.1702380000000000    0.5857700000000000    0.5942489999999999 B
   0.8297620000000000    0.4142300000000000    0.5942489999999999 B
   0.0857700000000000    0.3297620000000000    0.0942490000000000 B
   0.0857700000000000    0.6702380000000000    0.9057509999999999 B
   0.9142300000000000    0.3297620000000000    0.9057509999999999 B
   0.1702380000000000    0.4142300000000000    0.4057510000000000 B
   0.8297620000000000    0.5857700000000000    0.4057510000000000 B
   0.5829569999999999    0.7285049999999998    0.0877030000000000 B
   0.2285050000000000    0.9170430000000001    0.5877030000000000 B
   0.7714950000000000    0.0829570000000000    0.5877030000000000 B
   0.4170430000000000    0.2714950000000000    0.0877030000000000 B
   0.4170430000000000    0.7285049999999998    0.9122969999999999 B
   0.5829569999999999    0.2714950000000000    0.9122969999999999 B
   0.2285050000000000    0.0829570000000000    0.4122970000000000 B
   0.7714950000000000    0.9170430000000001    0.4122970000000000 B
   0.9170430000000001    0.7714950000000000    0.4122970000000000 B
   0.2714950000000000    0.5829569999999999    0.9122969999999999 B
   0.7285049999999998    0.4170430000000000    0.9122969999999999 B
   0.0829570000000000    0.2285050000000000    0.4122970000000000 B
   0.0829570000000000    0.7714950000000000    0.5877030000000000 B
   0.9170430000000001    0.2285050000000000    0.5877030000000000 B
   0.2714950000000000    0.4170430000000000    0.0877030000000000 B
   0.7285049999999998    0.5829569999999999    0.0877030000000000 B
