Nb16 O40
1.0
   1.8952030000000000   14.6897660000000005    0.0000000000000000
  -1.8952030000000000   14.6897660000000005    0.0000000000000000
   0.0000000000000000   10.3870950000000004   14.7805210000000002
Nb O
16 40
direct
   0.0608830000000001    0.0608830000000001    0.8981689999999999 Nb
   0.9391169999999999    0.9391169999999999    0.1018310000000000 Nb
   0.6601339999999999    0.6601339999999999    0.8983799999999998 Nb
   0.3398659999999999    0.3398659999999999    0.1016200000000000 Nb
   0.7942630000000003    0.7942630000000003    0.9002469999999999 Nb
   0.2057370000000000    0.2057370000000000    0.0997530000000000 Nb
   0.9248240000000000    0.9248240000000000    0.9031489999999999 Nb
   0.0751760000000000    0.0751760000000000    0.0968510000000000 Nb
   0.0234070000000000    0.0234070000000000    0.6266929999999998 Nb
   0.9765930000000000    0.9765930000000000    0.3733070000000000 Nb
   0.1551110000000000    0.1551110000000000    0.6277140000000000 Nb
   0.8448889999999999    0.8448889999999999    0.3722860000000000 Nb
   0.7531370000000001    0.7531370000000001    0.6341630000000000 Nb
   0.2468630000000001    0.2468630000000001    0.3658370000000000 Nb
   0.8894460000000001    0.8894460000000001    0.6337459999999999 Nb
   0.1105540000000000    0.1105540000000000    0.3662540000000000 Nb
   0.5740580000000000    0.5740580000000000    0.9125199999999999 O
   0.4259419999999999    0.4259419999999999    0.0874800000000000 O
   0.1318850000000001    0.1318850000000001    0.9239879999999999 O
   0.8681149999999999    0.8681149999999999    0.0760120000000000 O
   0.2739520000000001    0.2739520000000001    0.9379379999999999 O
   0.7260479999999999    0.7260479999999999    0.0620620000000000 O
   0.4109210000000000    0.4109210000000000    0.9464679999999999 O
   0.5890790000000000    0.5890790000000000    0.0535320000000000 O
   0.5158150000000000    0.5158150000000000    0.6575019999999999 O
   0.4841849999999999    0.4841849999999999    0.3424980000000000 O
   0.6693609999999999    0.6693609999999999    0.6401080000000000 O
   0.3306390000000001    0.3306390000000001    0.3598920000000000 O
   0.2297190000000000    0.2297190000000000    0.6425959999999998 O
   0.7702810000000000    0.7702810000000000    0.3574039999999999 O
   0.3712870000000000    0.3712870000000000    0.6436520000000000 O
   0.6287130000000000    0.6287130000000000    0.3563479999999999 O
   0.7182839999999999    0.7182839999999999    0.9089359999999999 O
   0.2817160000000000    0.2817160000000000    0.0910640000000000 O
   0.8540170000000000    0.8540170000000000    0.9170550000000000 O
   0.1459830000000000    0.1459830000000000    0.0829450000000000 O
   0.9851189999999999    0.9851189999999999    0.9387349999999999 O
   0.0148810000000000    0.0148810000000000    0.0612650000000000 O
   0.1023550000000001    0.1023550000000001    0.7761369999999999 O
   0.8976450000000000    0.8976450000000000    0.2238630000000000 O
   0.6949770000000000    0.6949770000000000    0.7764429999999999 O
   0.3050230000000000    0.3050230000000000    0.2235570000000000 O
   0.8376409999999999    0.8376409999999999    0.7773510000000000 O
   0.1623590000000000    0.1623590000000000    0.2226490000000000 O
   0.9728619999999999    0.9728619999999999    0.7838819999999999 O
   0.0271380000000000    0.0271380000000000    0.2161180000000000 O
   0.0904100000000000    0.0904100000000000    0.6345999999999999 O
   0.9095900000000000    0.9095900000000000    0.3654000000000000 O
   0.8099130000000001    0.8099130000000001    0.6447419999999999 O
   0.1900870000000000    0.1900870000000000    0.3552580000000000 O
   0.9534120000000001    0.9534120000000001    0.6361109999999999 O
   0.0465880000000000    0.0465880000000000    0.3638890000000000 O
   0.0706380000000000    0.0706380000000000    0.4979060000000000 O
   0.9293619999999999    0.9293619999999999    0.5020939999999999 O
   0.2048400000000000    0.2048400000000000    0.4989850000000000 O
   0.7951600000000000    0.7951600000000000    0.5010150000000000 O
