Si6 As6
1.0
   1.8481600000000000    8.8664500000000004    0.0000000000000000
  -1.8481600000000000    8.8664500000000004    0.0000000000000000
   0.0000000000000000    3.8879139999999999    9.4601319999999998
Si As
6 6
direct
   0.1368760000000000    0.1368760000000000    0.5902050000000001 Si
   0.8631240000000001    0.8631240000000001    0.4097950000000000 Si
   0.2310940000000000    0.2310940000000000    0.7007300000000001 Si
   0.7689060000000001    0.7689060000000001    0.2992700000000000 Si
   0.5650360000000000    0.5650360000000000    0.9081820000000002 Si
   0.4349640000000000    0.4349640000000000    0.0918180000000000 Si
   0.1423949999999999    0.1423949999999999    0.9455249999999999 As
   0.8576049999999998    0.8576049999999998    0.0544750000000000 As
   0.1760140000000000    0.1760140000000000    0.3380400000000001 As
   0.8239860000000000    0.8239860000000000    0.6619600000000000 As
   0.5452090000000001    0.5452090000000001    0.6858650000000001 As
   0.4547910000000001    0.4547910000000001    0.3141350000000001 As
