La10 Sn6
1.0
  -6.4200510000000000    6.4200510000000000    3.1818990000000000
   6.4200510000000000   -6.4200510000000000    3.1818990000000000
   6.4200510000000000    6.4200510000000000   -3.1818990000000000
La Sn
10 6
direct
   0.7500000000000000    0.2500000000000001    0.5000000000000000 La
   0.2500000000000001    0.7499999999999999    0.5000000000000000 La
   0.9144440000000003    0.2169920000000001    0.1314360000000001 La
   0.2169920000000000    0.0855560000000000    0.3025480000000000 La
   0.7830080000000000    0.9144439999999999    0.6974520000000000 La
   0.0855560000000001    0.7830080000000001    0.8685640000000001 La
   0.7169920000000001    0.4144440000000000    0.1314360000000001 La
   0.2830080000000001    0.5855560000000000    0.8685640000000001 La
   0.5855560000000000    0.7169920000000000    0.3025480000000001 La
   0.4144440000000000    0.2830080000000000    0.6974520000000000 La
   0.7500000000000001    0.7500000000000001    0.0000000000000001 Sn
   0.2500000000000000    0.2500000000000000    0.0000000000000000 Sn
   0.8398780000000002    0.6601220000000001    0.5000000000000001 Sn
   0.6601220000000000    0.1601220000000001    0.8202440000000001 Sn
   0.3398780000000001    0.8398780000000000    0.1797560000000001 Sn
   0.1601220000000000    0.3398780000000000    0.5000000000000000 Sn
