V4 Ir4
1.0
   3.5206480000000000   -3.9022500000000000    0.0000000000000000
   3.5206480000000000    3.9022500000000000    0.0000000000000000
   0.0000000000000000    0.0000000000000000    4.0633210000000002
V Ir
4 4
direct
   0.5936669999999998    0.4063329999999999    0.7500000000000000 V
   0.1677090000000000    0.8322910000000000    0.7500000000000000 V
   0.4063329999999999    0.5936669999999998    0.2500000000000000 V
   0.8322910000000000    0.1677090000000000    0.2500000000000000 V
   0.6564950000000001    0.9045319999999999    0.7500000000000000 Ir
   0.0954680000000000    0.3435050000000000    0.7500000000000000 Ir
   0.3435050000000000    0.0954680000000000    0.2500000000000000 Ir
   0.9045319999999999    0.6564950000000001    0.2500000000000000 Ir
