Be6 P4
1.0
   5.0783849999999999    0.0000000000000000    0.0000000000000000
   0.0000000000000000    5.0783849999999999    0.0000000000000000
   0.0000000000000000    0.0000000000000000    5.0783849999999999
Be P
6 4
direct
   0.0000000000000000    0.0000000000000000    0.5000000000000000 Be
   0.0000000000000000    0.5000000000000000    0.0000000000000000 Be
   0.5000000000000000    0.0000000000000000    0.0000000000000000 Be
   0.5000000000000000    0.0000000000000000    0.5000000000000000 Be
   0.5000000000000000    0.5000000000000000    0.0000000000000000 Be
   0.0000000000000000    0.5000000000000000    0.5000000000000000 Be
   0.7500000000000000    0.7500000000000000    0.2500000000000000 P
   0.2500000000000000    0.7500000000000000    0.7500000000000000 P
   0.7500000000000000    0.2500000000000000    0.7500000000000000 P
   0.2500000000000000    0.2500000000000000    0.2500000000000000 P
