Ba28 Ge24
1.0
   8.2014720000000008    0.0000000000000000    0.0000000000000000
   0.0000000000000000    9.0950720000000000    0.0000000000000000
   0.0000000000000000    0.0000000000000000   24.9464399999999991
Ba Ge
28 24
direct
   0.5363280000000000    0.3175730000000000    0.1615730000000000 Ba
   0.0363280000000000    0.1824270000000000    0.3384270000000000 Ba
   0.4636720000000000    0.6824270000000000    0.6615729999999999 Ba
   0.9636720000000000    0.8175730000000001    0.8384269999999999 Ba
   0.4636720000000000    0.6824270000000000    0.8384269999999999 Ba
   0.9636720000000000    0.8175730000000001    0.6615729999999999 Ba
   0.5363280000000000    0.3175730000000000    0.3384270000000000 Ba
   0.0363280000000000    0.1824270000000000    0.1615730000000000 Ba
   0.6232850000000000    0.1844600000000000    0.6395990000000000 Ba
   0.1232850000000000    0.3155400000000000    0.8604010000000000 Ba
   0.3767150000000000    0.8155400000000000    0.1395990000000000 Ba
   0.8767150000000000    0.6844600000000000    0.3604010000000000 Ba
   0.3767150000000000    0.8155400000000000    0.3604010000000000 Ba
   0.8767150000000000    0.6844600000000000    0.1395990000000000 Ba
   0.6232850000000000    0.1844600000000000    0.8604010000000000 Ba
   0.1232850000000000    0.3155400000000000    0.6395990000000000 Ba
   0.8446120000000000    0.3236280000000000    0.0191540000000000 Ba
   0.3446120000000000    0.1763720000000000    0.4808459999999999 Ba
   0.1553880000000000    0.6763720000000000    0.5191540000000000 Ba
   0.6553880000000000    0.8236280000000001    0.9808459999999999 Ba
   0.1553880000000000    0.6763720000000000    0.9808459999999999 Ba
   0.6553880000000000    0.8236280000000001    0.5191540000000000 Ba
   0.8446120000000000    0.3236280000000000    0.4808459999999999 Ba
   0.3446120000000000    0.1763720000000000    0.0191540000000000 Ba
   0.7900199999999999    0.4679990000000001    0.7500000000000000 Ba
   0.2900200000000000    0.0320010000000000    0.7500000000000000 Ba
   0.2099800000000000    0.5320009999999999    0.2500000000000000 Ba
   0.7099800000000001    0.9679990000000001    0.2500000000000000 Ba
   0.5055950000000000    0.4652870000000001    0.5505620000000000 Ge
   0.0055950000000000    0.0347130000000000    0.9494379999999999 Ge
   0.4944049999999999    0.5347130000000000    0.0505620000000000 Ge
   0.9944050000000000    0.9652870000000000    0.4494380000000000 Ge
   0.4944049999999999    0.5347130000000000    0.4494380000000000 Ge
   0.9944050000000000    0.9652870000000000    0.0505620000000000 Ge
   0.5055950000000000    0.4652870000000001    0.9494379999999999 Ge
   0.0055950000000000    0.0347130000000000    0.5505620000000000 Ge
   0.7110620000000000    0.0251270000000000    0.0952200000000000 Ge
   0.2110620000000000    0.4748730000000000    0.4047800000000000 Ge
   0.2889380000000000    0.9748730000000000    0.5952199999999999 Ge
   0.7889380000000000    0.5251270000000000    0.9047799999999999 Ge
   0.2889380000000000    0.9748730000000000    0.9047799999999999 Ge
   0.7889380000000000    0.5251270000000000    0.5952199999999999 Ge
   0.7110620000000000    0.0251270000000000    0.4047800000000000 Ge
   0.2110620000000000    0.4748730000000000    0.0952200000000000 Ge
   0.6698430000000000    0.9159790000000001    0.7500000000000000 Ge
   0.1698430000000000    0.5840210000000000    0.7500000000000000 Ge
   0.3301570000000000    0.0840210000000000    0.2500000000000000 Ge
   0.8301570000000000    0.4159790000000000    0.2500000000000000 Ge
   0.8889040000000000    0.1127610000000000    0.7500000000000000 Ge
   0.3889040000000000    0.3872390000000000    0.7500000000000000 Ge
   0.1110960000000000    0.8872390000000000    0.2500000000000000 Ge
   0.6110960000000000    0.6127610000000000    0.2500000000000000 Ge
