Ca16 As24
1.0
   5.8584480000000001    0.0000000000000000    0.0000000000000000
   0.0000000000000000   12.0368069999999996    0.0000000000000000
   0.0000000000000000   11.8418670000000006   13.7979540000000007
Ca As
16 24
direct
   0.2455800000000000    0.3754399999999998    0.9992040000000000 Ca
   0.2455800000000000    0.6245600000000001    0.5007960000000000 Ca
   0.7544200000000000    0.6245600000000001    0.0007960000000000 Ca
   0.7544200000000000    0.3754400000000000    0.4992040000000000 Ca
   0.2599449999999999    0.1334850000000000    0.4908800000000000 Ca
   0.2599449999999999    0.8665150000000001    0.0091200000000000 Ca
   0.7400550000000000    0.8665150000000001    0.5091200000000000 Ca
   0.7400550000000000    0.1334850000000001    0.9908800000000000 Ca
   0.5480080000000001    0.7590910000000000    0.2489480000000000 Ca
   0.5480080000000001    0.2409090000000000    0.2510520000000000 Ca
   0.4519920000000000    0.2409090000000001    0.7510520000000001 Ca
   0.4519920000000000    0.7590910000000001    0.7489479999999999 Ca
   0.9601160000000000    0.0000000000000000    0.2500000000000000 Ca
   0.0398840000000000    0.0000000000000001    0.7499999999999999 Ca
   0.9085309999999999    0.5000000000000000    0.2500000000000000 Ca
   0.0914690000000000    0.5000000000000002    0.7499999999999999 Ca
   0.5467490000000000    0.9250790000000001    0.8418700000000000 As
   0.5467490000000000    0.0749210000000001    0.6581299999999999 As
   0.4532510000000000    0.0749210000000000    0.1581300000000000 As
   0.4532510000000000    0.9250790000000001    0.3418700000000000 As
   0.7316640000000000    0.7137289999999999    0.4225010000000000 As
   0.7316640000000000    0.2862710000000001    0.0774990000000000 As
   0.2683360000000000    0.2862710000000001    0.5774990000000000 As
   0.2683360000000000    0.7137290000000003    0.9225010000000000 As
   0.3969500000000000    0.5481560000000000    0.1645120000000000 As
   0.3969500000000000    0.4518440000000002    0.3354880000000000 As
   0.6030499999999999    0.4518440000000002    0.8354879999999999 As
   0.6030499999999999    0.5481560000000000    0.6645120000000000 As
   0.0498300000000000    0.1571280000000000    0.3290290000000000 As
   0.0498300000000000    0.8428720000000002    0.1709710000000000 As
   0.9501699999999998    0.8428720000000000    0.6709710000000000 As
   0.9501699999999998    0.1571280000000001    0.8290289999999999 As
   0.2258150000000000    0.1882800000000001    0.9223020000000000 As
   0.2258150000000000    0.8117200000000001    0.5776980000000000 As
   0.7741849999999999    0.8117200000000001    0.0776980000000000 As
   0.7741849999999999    0.1882800000000001    0.4223020000000000 As
   0.0967610000000000    0.3941060000000001    0.1549610000000000 As
   0.0967610000000000    0.6058940000000000    0.3450389999999999 As
   0.9032389999999999    0.6058940000000000    0.8450390000000000 As
   0.9032389999999999    0.3941060000000002    0.6549610000000000 As
