Mo4 O10
1.0
   3.7104750000000002    0.0000000000000000    0.0000000000000000
   0.0000000000000000    5.9558450000000001    0.0000000000000000
   0.0000000000000000    0.0000000000000000    9.9495950000000004
Mo O
4 10
direct
   0.5000000000000000    0.7277960000000000    0.8661340000000000 Mo
   0.5000000000000000    0.2722040000000000    0.1338660000000000 Mo
   0.5000000000000000    0.2277960000000000    0.6338660000000000 Mo
   0.5000000000000000    0.7722040000000000    0.3661340000000000 Mo
   0.0000000000000000    0.7905450000000001    0.9000890000000000 O
   0.0000000000000000    0.2094550000000000    0.0999110000000000 O
   0.0000000000000000    0.2905450000000000    0.5999110000000000 O
   0.0000000000000000    0.7094550000000001    0.4000890000000000 O
   0.5000000000000000    0.0519880000000000    0.7839910000000000 O
   0.5000000000000000    0.9480120000000000    0.2160090000000000 O
   0.5000000000000000    0.5519880000000000    0.7160090000000001 O
   0.5000000000000000    0.4480120000000000    0.2839910000000000 O
   0.5000000000000000    0.5000000000000000    0.0000000000000000 O
   0.5000000000000000    0.0000000000000000    0.5000000000000000 O
