La16 Te24
1.0
  -4.8368539999999998    4.8368539999999998   14.5453130000000002
   4.8368539999999998   -4.8368539999999998   14.5453130000000002
   4.8368539999999998    4.8368539999999998  -14.5453130000000002
La Te
16 24
direct
   0.2035740000000000    0.3290480000000000    0.6140070000000000 La
   0.4176790000000001    0.9176790000000001    0.5000000000000000 La
   0.9950690000000000    0.6250000000000000    0.8700690000000000 La
   0.0349590000000001    0.9209520000000000    0.3745250000000001 La
   0.3323210000000000    0.3323210000000000    0.0000000000000000 La
   0.5464259999999999    0.6604329999999999    0.6254750000000000 La
   0.7549310000000000    0.1250000000000000    0.1299310000000000 La
   0.3395670000000001    0.9650410000000003    0.8859930000000001 La
   0.3750000000000000    0.2450690000000000    0.3700690000000000 La
   0.6676790000000001    0.6676790000000001    0.0000000000000000 La
   0.8750000000000001    0.0049310000000001    0.6299310000000001 La
   0.0790480000000000    0.4535740000000000    0.1140070000000000 La
   0.0823210000000000    0.5823209999999999    0.5000000000000000 La
   0.6709520000000001    0.2849590000000001    0.8745250000000001 La
   0.7150410000000001    0.5895670000000001    0.3859930000000000 La
   0.4104330000000000    0.7964260000000001    0.1254750000000000 La
   0.5076310000000001    0.2597580000000000    0.9023010000000000 Te
   0.7205009999999999    0.8228280000000000    0.7473240000000001 Te
   0.3574570000000001    0.6053300000000000    0.0976990000000000 Te
   0.2423690000000001    0.6446700000000001    0.2521270000000000 Te
   0.3925430000000000    0.9902420000000002    0.7478730000000001 Te
   0.0755050000000000    0.9731770000000001    0.2526760000000001 Te
   0.8457570000000001    0.5919850000000000    0.9063150000000000 Te
   0.0294990000000000    0.2768230000000000    0.6023270000000001 Te
   0.0605590000000000    0.1542430000000000    0.7462280000000000 Te
   0.6856700000000001    0.9394410000000001    0.0936850000000000 Te
   0.6744950000000002    0.4271720000000001    0.3976730000000001 Te
   0.5728280000000001    0.9705009999999999    0.2473240000000000 Te
   0.7231770000000000    0.3255050000000000    0.7526759999999999 Te
   0.4080150000000001    0.3143300000000001    0.2537720000000001 Te
   0.1771720000000001    0.9244950000000001    0.8976730000000002 Te
   0.3553300000000000    0.6074570000000000    0.5976990000000000 Te
   0.3946700000000001    0.4923690000000001    0.7521270000000000 Te
   0.0268230000000000    0.2794990000000001    0.1023270000000000 Te
   0.0097580000000000    0.7576310000000002    0.4023010000000001 Te
   0.9042430000000001    0.3105590000000001    0.2462279999999999 Te
   0.0643300000000001    0.6580150000000000    0.7537719999999999 Te
   0.7402420000000001    0.6425430000000001    0.2478730000000000 Te
   0.6894410000000001    0.9356700000000000    0.5936850000000000 Te
   0.3419850000000000    0.0957570000000000    0.4063150000000000 Te
