Pr6 Gd2
1.0
   3.6879879999999998   -6.3877829999999998    0.0000000000000000
   3.6879879999999998    6.3877829999999998    0.0000000000000000
   0.0000000000000000    0.0000000000000000    6.0656330000000001
Pr Gd
6 2
direct
   0.1662480000000000    0.3324960000000000    0.2500000000000000 Pr
   0.6675039999999999    0.8337520000000000    0.2500000000000000 Pr
   0.1662480000000000    0.8337519999999999    0.2500000000000000 Pr
   0.8337520000000000    0.6675039999999999    0.7500000000000001 Pr
   0.3324960000000000    0.1662480000000000    0.7500000000000001 Pr
   0.8337519999999999    0.1662480000000000    0.7500000000000001 Pr
   0.3333330000000000    0.6666670000000000    0.7500000000000001 Gd
   0.6666670000000000    0.3333330000000000    0.2500000000000000 Gd
