Tb4 Tl2
1.0
   2.7189340000000000   -4.7093319999999999    0.0000000000000000
   2.7189340000000000    4.7093319999999999    0.0000000000000000
   0.0000000000000000    0.0000000000000000    6.7637479999999996
Tb Tl
4 2
direct
   0.0000000000000000    0.0000000000000000    0.0000000000000000 Tb
   0.0000000000000000    0.0000000000000000    0.5000000000000000 Tb
   0.3333330000000000    0.6666670000000000    0.7500000000000000 Tb
   0.6666670000000000    0.3333330000000000    0.2500000000000000 Tb
   0.3333330000000000    0.6666670000000000    0.2500000000000000 Tl
   0.6666670000000000    0.3333330000000000    0.7500000000000000 Tl
