Nb6 Co18
1.0
   2.3598100000000000   -4.0873100000000004    0.0000000000000000
   2.3598100000000000    4.0873100000000004    0.0000000000000000
   0.0000000000000000    0.0000000000000000   15.4717479999999998
Nb Co
6 18
direct
   0.3333330000000000    0.6666670000000000    0.6691090000000000 Nb
   0.0000000000000000    0.0000000000000000    0.3998380000000000 Nb
   0.0000000000000000    0.0000000000000000    0.5898130000000000 Nb
   0.0000000000000000    0.0000000000000000    0.8998380000000000 Nb
   0.6666670000000000    0.3333330000000000    0.1691090000000000 Nb
   0.0000000000000000    0.0000000000000000    0.0898130000000000 Nb
   0.4997369999999999    0.9994739999999999    0.9986310000000000 Co
   0.8352450000000000    0.1647549999999999    0.7503680000000000 Co
   0.6666670000000000    0.3333330000000000    0.3482480000000000 Co
   0.3295090000000000    0.1647550000000000    0.7503680000000000 Co
   0.1647549999999999    0.8352450000000000    0.2503680000000000 Co
   0.6666670000000000    0.3333330000000000    0.8722950000000000 Co
   0.6704909999999999    0.8352450000000000    0.2503680000000000 Co
   0.0005260000000000    0.5002630000000000    0.9986310000000000 Co
   0.8352450000000000    0.6704909999999999    0.7503680000000000 Co
   0.5002630000000000    0.0005260000000000    0.4986310000000000 Co
   0.3333330000000000    0.6666670000000000    0.8482480000000001 Co
   0.3333330000000000    0.6666670000000000    0.1237000000000000 Co
   0.1647550000000000    0.3295090000000000    0.2503680000000000 Co
   0.4997370000000000    0.5002630000000000    0.9986310000000000 Co
   0.6666670000000000    0.3333330000000000    0.6237000000000000 Co
   0.9994739999999999    0.4997369999999999    0.4986310000000000 Co
   0.3333330000000000    0.6666670000000000    0.3722950000000000 Co
   0.5002630000000000    0.4997370000000000    0.4986310000000000 Co
