Bi4 O8
1.0
  -2.2005029999999999    3.2479580000000001    6.4823919999999999
   2.2005029999999999   -3.2479580000000001    6.4823919999999999
   2.2005029999999999    3.2479580000000001   -6.4823919999999999
Bi O
4 8
direct
   0.6612500000000000    0.3764350000000000    0.2848150000000000 Bi
   0.9083790000000000    0.1235650000000001    0.7848150000000000 Bi
   0.0916210000000000    0.8764350000000000    0.2151850000000001 Bi
   0.3387500000000001    0.6235649999999999    0.7151850000000001 Bi
   0.6508720000000000    0.2238150000000000    0.4270570000000001 O
   0.9479210000000001    0.5767200000000001    0.3712010000000001 O
   0.2055190000000000    0.0767200000000000    0.1287990000000000 O
   0.2032410000000001    0.2761850000000000    0.9270570000000001 O
   0.3491280000000001    0.7761850000000000    0.5729430000000001 O
   0.0520790000000000    0.4232799999999999    0.6287990000000002 O
   0.7944810000000000    0.9232800000000001    0.8712010000000002 O
   0.7967590000000001    0.7238150000000001    0.0729430000000000 O
