Li3 Mg1
1.0
  -2.1195930000000001    2.1195930000000001    4.4962410000000004
   2.1195930000000001   -2.1195930000000001    4.4962410000000004
   2.1195930000000001    2.1195930000000001   -4.4962410000000004
Li Mg
3 1
direct
   0.5000000000000001    0.5000000000000001    0.0000000000000001 Li
   0.2500000000000002    0.7500000000000002    0.4999999999999999 Li
   0.7500000000000000    0.2500000000000001    0.4999999999999999 Li
   0.0000000000000000    0.0000000000000000    0.0000000000000000 Mg
