Cu4 S2
1.0
   3.4079269999999999    2.0212880000000002    0.0000000000000000
  -3.4079269999999999    2.0212880000000002    0.0000000000000000
   0.0000000000000000    0.3729460000000000    7.2875990000000002
Cu S
4 2
direct
  -0.0000000000000000    0.5000000000000000    0.5000000000000000 Cu
   0.5000000000000000    0.0000000000000000    0.0000000000000000 Cu
   0.0143020000000000    0.9856980000000000    0.2500000000000000 Cu
   0.9856980000000000    0.0143020000000000    0.7500000000000001 Cu
   0.3663720000000000    0.6336280000000001    0.2500000000000000 S
   0.6336280000000001    0.3663720000000000    0.7500000000000001 S
