Mo16 O44
1.0
   5.5420870000000004    0.0000000000000000    0.0000000000000000
   0.0000000000000000    6.8625290000000003    0.0000000000000000
   0.0000000000000000    0.0000000000000000   24.9662210000000009
Mo O
16 44
direct
   0.2633500000000000    0.1286240000000000    0.2052390000000000 Mo
   0.7633500000000000    0.8713760000000000    0.7947610000000001 Mo
   0.2633500000000000    0.3713760000000000    0.7052389999999999 Mo
   0.7633500000000000    0.6286240000000000    0.2947610000000000 Mo
   0.7448220000000000    0.8049270000000001    0.1474070000000000 Mo
   0.2448220000000000    0.1950730000000000    0.8525930000000002 Mo
   0.7448220000000000    0.6950730000000001    0.6474070000000000 Mo
   0.2448220000000000    0.3049270000000000    0.3525930000000000 Mo
   0.2490390000000000    0.4829830000000000    0.0871660000000000 Mo
   0.7490390000000000    0.5170169999999999    0.9128340000000001 Mo
   0.2490390000000000    0.0170170000000000    0.5871660000000001 Mo
   0.7490390000000000    0.9829830000000001    0.4128340000000000 Mo
   0.7486830000000000    0.1589460000000000    0.0291380000000000 Mo
   0.2486830000000000    0.8410540000000000    0.9708620000000001 Mo
   0.7486830000000000    0.3410540000000000    0.5291380000000000 Mo
   0.2486830000000000    0.6589460000000000    0.4708620000000001 Mo
   0.9859610000000000    0.9917220000000000    0.9978590000000002 O
   0.4859610000000000    0.0082780000000000    0.0021410000000000 O
   0.9859610000000000    0.5082780000000000    0.4978590000000001 O
   0.4859610000000000    0.4917220000000000    0.5021410000000001 O
   0.2421450000000000    0.3410880000000000    0.1638420000000000 O
   0.7421450000000001    0.6589120000000001    0.8361580000000000 O
   0.2421450000000000    0.1589120000000000    0.6638420000000000 O
   0.7421450000000001    0.8410879999999999    0.3361580000000000 O
   0.7370570000000001    0.6772590000000002    0.2239550000000000 O
   0.2370570000000000    0.3227410000000000    0.7760450000000000 O
   0.7370570000000001    0.8227409999999999    0.7239550000000000 O
   0.2370570000000000    0.1772590000000000    0.2760450000000000 O
   0.0169980000000000    0.3160730000000000    0.0610000000000000 O
   0.5169980000000000    0.6839270000000000    0.9390000000000001 O
   0.0169980000000000    0.1839270000000000    0.5610000000000001 O
   0.5169980000000000    0.8160730000000000    0.4390000000000001 O
   0.0105760000000000    0.6633690000000000    0.9342580000000000 O
   0.5105760000000000    0.3366310000000001    0.0657420000000000 O
   0.0105760000000000    0.8366310000000000    0.4342580000000000 O
   0.5105760000000000    0.1633690000000000    0.5657420000000000 O
   0.9715810000000000    0.6403680000000000    0.1227310000000000 O
   0.4715810000000000    0.3596320000000000    0.8772690000000001 O
   0.9715810000000000    0.8596320000000001    0.6227310000000001 O
   0.4715810000000000    0.1403680000000000    0.3772690000000000 O
   0.9754860000000000    0.3253820000000000    0.8721790000000000 O
   0.4754860000000001    0.6746180000000001    0.1278210000000000 O
   0.9754860000000000    0.1746180000000000    0.3721790000000000 O
   0.4754860000000001    0.8253819999999999    0.6278210000000001 O
   0.0324360000000000    0.9628730000000000    0.1862770000000000 O
   0.5324360000000000    0.0371270000000000    0.8137230000000001 O
   0.0324360000000000    0.5371270000000000    0.6862770000000001 O
   0.5324360000000000    0.4628730000000000    0.3137230000000000 O
   0.0488480000000000    0.9837240000000000    0.8072260000000001 O
   0.5488480000000000    0.0162760000000000    0.1927740000000000 O
   0.0488480000000000    0.5162760000000000    0.3072260000000000 O
   0.5488480000000000    0.4837240000000000    0.6927740000000001 O
   0.2472080000000000    0.6584190000000000    0.0307760000000000 O
   0.7472080000000000    0.3415810000000000    0.9692240000000000 O
   0.2472080000000000    0.8415810000000001    0.5307760000000000 O
   0.7472080000000000    0.1584190000000000    0.4692240000000000 O
   0.7522080000000001    0.9827310000000000    0.0938540000000000 O
   0.2522080000000000    0.0172690000000000    0.9061460000000001 O
   0.7522080000000001    0.5172690000000000    0.5938540000000001 O
   0.2522080000000000    0.4827310000000000    0.4061460000000000 O
