Er2 Au2
1.0
   1.8514150000000000   -5.4479860000000002    0.0000000000000000
   1.8514150000000000    5.4479860000000002    0.0000000000000000
   0.0000000000000000    0.0000000000000000    4.6613230000000003
Er Au
2 2
direct
   0.8610899999999999    0.1389100000000001    0.2500000000000000 Er
   0.1389100000000001    0.8610899999999999    0.7500000000000000 Er
   0.5891240000000000    0.4108760000000000    0.2500000000000000 Au
   0.4108760000000000    0.5891240000000000    0.7500000000000000 Au
