Zr6 Co2
1.0
   1.6339390000000000   -5.3986890000000001    0.0000000000000000
   1.6339390000000000    5.3986890000000001    0.0000000000000000
   0.0000000000000000    0.0000000000000000    9.0543449999999996
Zr Co
6 2
direct
   0.5833980000000000    0.4166020000000000    0.7500000000000000 Zr
   0.4166020000000000    0.5833980000000000    0.2500000000000000 Zr
   0.8652600000000000    0.1347400000000000    0.9444810000000000 Zr
   0.1347400000000000    0.8652600000000000    0.0555190000000000 Zr
   0.1347400000000000    0.8652600000000000    0.4444810000000000 Zr
   0.8652600000000000    0.1347400000000000    0.5555190000000000 Zr
   0.2757120000000000    0.7242880000000000    0.7500000000000000 Co
   0.7242880000000000    0.2757120000000000    0.2500000000000000 Co
