Fe4 Ge4
1.0
   1.9611620000000001    5.9380879999999996    0.0000000000000000
  -1.9611620000000001    5.9380879999999996    0.0000000000000000
   0.0000000000000000    1.1853210000000001    4.7459069999999999
Fe Ge
4 4
direct
   0.0000000000000000    0.0000000000000000    0.0000000000000000 Fe
   0.0000000000000000    0.0000000000000000    0.4999999999999999 Fe
   0.7949629999999999    0.7949629999999999    0.3600449999999999 Fe
   0.2050370000000000    0.2050370000000000    0.6399550000000001 Fe
   0.1841170000000000    0.1841170000000000    0.1563660000000000 Ge
   0.8158830000000000    0.8158830000000000    0.8436340000000000 Ge
   0.4302130000000000    0.4302130000000000    0.2999019999999999 Ge
   0.5697870000000000    0.5697870000000000    0.7000980000000000 Ge
