Ta1 H4
1.0
  -2.1619730000000001    2.1619730000000001    2.1619730000000001
   2.1619730000000001   -2.1619730000000001    2.1619730000000001
   2.1619730000000001    2.1619730000000001   -2.1619730000000001
Ta H
1 4
direct
   0.0000000000000000    0.0000000000000000    0.0000000000000000 Ta
   0.4999999999999999    0.5000000000000000    0.5000000000000000 H
  -0.0000000000000000    0.0000000000000000    0.5000000000000000 H
  -0.0000000000000000    0.5000000000000000    0.0000000000000000 H
   0.5000000000000000   -0.0000000000000000   -0.0000000000000000 H
