Fe12 O24
1.0
   2.9799460000000000   -5.1614180000000003    0.0000000000000000
   2.9799460000000000    5.1614180000000003    0.0000000000000000
   0.0000000000000000    0.0000000000000000   14.3631849999999996
Fe O
12 24
direct
   0.9906389999999999    0.4953190000000000    0.1674370000000000 Fe
   0.5046809999999999    0.0093610000000000    0.1674370000000000 Fe
   0.6564609999999997    0.8282300000000001    0.4993390000000000 Fe
   0.5046809999999999    0.4953190000000000    0.1674370000000000 Fe
   0.1717700000000000    0.3435390000000000    0.4993390000000000 Fe
   0.0000000000000000    0.0000000000000000    0.6662260000000001 Fe
   0.0000000000000000    0.0000000000000000    0.2822520000000000 Fe
   0.3352430000000000    0.1676220000000000    0.8345410000000001 Fe
   0.1717699999999998    0.8282300000000001    0.4993390000000000 Fe
   0.8323779999999998    0.6647570000000002    0.8345410000000001 Fe
   0.8323779999999998    0.1676220000000000    0.8345410000000001 Fe
   0.3333329999999999    0.6666670000000000    0.9552250000000001 Fe
   0.3682779999999999    0.1841390000000000    0.0998570000000000 O
   0.6666669999999999    0.3333330000000000    0.2447380000000000 O
   0.8158609999999997    0.6317220000000001    0.0998570000000000 O
   0.8158609999999998    0.1841390000000000    0.0998570000000000 O
   0.0257399999999999    0.5128700000000002    0.4375610000000000 O
   0.1747449999999999    0.8252550000000000    0.2372220000000000 O
   0.3333329999999999    0.6666670000000000    0.5766750000000000 O
   0.1747449999999999    0.3494900000000000    0.2372220000000000 O
   0.3333329999999999    0.6666670000000000    0.0897330000000000 O
   0.4871299999999997    0.9742600000000000    0.4375610000000000 O
   0.4871299999999998    0.5128700000000000    0.4375610000000000 O
   0.6505099999999999    0.8252550000000001    0.2372220000000000 O
   0.7134529999999999    0.8567270000000001    0.7468960000000000 O
   0.8582560000000000    0.1417440000000000    0.5765220000000000 O
   0.8582559999999999    0.7165130000000000    0.5765220000000000 O
   0.0000000000000000    0.0000000000000000    0.9027290000000001 O
   0.0000000000000000    0.0000000000000000    0.4182630000000000 O
   0.1432730000000000    0.2865470000000001    0.7468960000000000 O
   0.1432729999999998    0.8567270000000001    0.7468960000000000 O
   0.2834869999999999    0.1417440000000000    0.5765220000000000 O
   0.5003649999999998    0.4996350000000001    0.9032710000000002 O
   0.5003649999999999    0.0007290000000000    0.9032710000000002 O
   0.6666669999999999    0.3333330000000000    0.7669450000000001 O
   0.9992709999999998    0.4996350000000000    0.9032710000000002 O
