Sr1 O10
1.0
   5.2371330000000000    0.0000000000000000    0.0000000000000000
   0.0000000000000000    5.2371330000000000    0.0000000000000000
   0.0000000000000000    0.0000000000000000    5.4778339999999996
Sr O
1 10
direct
   0.0000000000000000    0.0000000000000000    0.0000000000000000 Sr
   0.3546880000000000    0.3546880000000000    0.2479430000000000 O
   0.6453120000000000    0.6453120000000000    0.7520569999999999 O
   0.6453120000000000    0.6453120000000000    0.2479430000000000 O
   0.6453120000000000    0.3546880000000000    0.2479430000000000 O
   0.6453120000000000    0.3546880000000000    0.7520569999999999 O
   0.3546880000000000    0.3546880000000000    0.7520569999999999 O
   0.3546880000000000    0.6453120000000000    0.7520569999999999 O
   0.3546880000000000    0.6453120000000000    0.2479430000000000 O
   0.0000000000000000    0.5000000000000000    0.0000000000000000 O
   0.5000000000000000    0.0000000000000000    0.0000000000000000 O
