V8 O16
1.0
   5.2102930000000001    0.0000000000000000    0.0000000000000000
   0.0000000000000000    5.4000019999999997    0.0000000000000000
   0.0000000000000000    0.0000000000000000    9.1911400000000008
V O
8 16
direct
   0.1411230000000000    0.5984260000000000    0.8712750000000000 V
   0.8588770000000000    0.9015740000000000    0.3712750000000000 V
   0.3588770000000000    0.0984260000000000    0.1287250000000000 V
   0.6411229999999999    0.4015739999999999    0.6287250000000000 V
   0.8588770000000000    0.4015739999999999    0.1287250000000000 V
   0.1411230000000000    0.0984260000000000    0.6287250000000000 V
   0.6411229999999999    0.9015740000000000    0.8712750000000000 V
   0.3588770000000000    0.5984260000000000    0.3712750000000000 V
   0.8103399999999999    0.6410920000000000    0.9942730000000000 O
   0.1896600000000000    0.8589079999999999    0.4942730000000000 O
   0.6896600000000001    0.1410920000000000    0.0057270000000000 O
   0.3103399999999999    0.3589080000000000    0.5057270000000000 O
   0.1896600000000000    0.3589080000000000    0.0057270000000000 O
   0.8103399999999999    0.1410920000000000    0.5057270000000000 O
   0.3103399999999999    0.8589079999999999    0.9942730000000000 O
   0.6896600000000001    0.6410920000000000    0.4942730000000000 O
   0.4672760000000000    0.6191930000000000    0.7733890000000000 O
   0.5327240000000000    0.8808069999999999    0.2733890000000000 O
   0.0327240000000000    0.1191930000000000    0.2266110000000000 O
   0.9672760000000000    0.3808070000000000    0.7266110000000000 O
   0.5327240000000000    0.3808070000000000    0.2266110000000000 O
   0.4672760000000000    0.1191930000000000    0.7266110000000000 O
   0.9672760000000000    0.8808069999999999    0.7733890000000000 O
   0.0327240000000000    0.6191930000000000    0.2733890000000000 O
