Tl1 Bi3
1.0
   5.0351450000000000    0.0000000000000000    0.0000000000000000
   0.0000000000000000    5.0351450000000000    0.0000000000000000
   0.0000000000000000    0.0000000000000000    5.0351450000000000
Tl Bi
1 3
direct
   0.0000000000000000    0.0000000000000000    0.0000000000000000 Tl
   0.0000000000000000    0.5000000000000000    0.5000000000000000 Bi
   0.5000000000000000    0.0000000000000000    0.5000000000000000 Bi
   0.5000000000000000    0.5000000000000000    0.0000000000000000 Bi
