Cr4 S8
1.0
   5.6048010000000001   -3.4152330000000002    0.0000000000000000
   5.6048010000000001    3.4152330000000002    0.0000000000000000
   3.5237609999999999    0.0000000000000000    5.5372120000000002
Cr S
4 8
direct
   0.5000000000000000   -0.0000000000000000    0.5000000000000000 Cr
   0.0000000000000000    0.4999999999999999    0.5000000000000000 Cr
   0.5000000000000000    0.4999999999999999    0.5000000000000000 Cr
   0.5000000000000000    0.5000000000000000    0.0000000000000000 Cr
   0.7432360000000001    0.2540289999999999    0.2540290000000000 S
   0.2540290000000000    0.7432360000000001    0.2540290000000000 S
   0.2540290000000001    0.2540290000000000    0.7432359999999999 S
   0.2507770000000000    0.2507770000000000    0.2507770000000000 S
   0.7459710000000002    0.2567640000000000    0.7459710000000001 S
   0.2567640000000001    0.7459710000000002    0.7459710000000001 S
   0.7492230000000000    0.7492229999999999    0.7492230000000000 S
   0.7459710000000002    0.7459710000000002    0.2567640000000000 S
