Mg4 Si8
1.0
   3.7304960000000000    0.0000000000000000    0.0000000000000000
   1.8403259999999999    5.0739020000000004    0.0000000000000000
   1.6976970000000000    0.5303620000000000   11.7985380000000006
Mg Si
4 8
direct
   0.6990470000000001    0.9192060000000000    0.8196120000000000 Mg
   0.3009530000000001    0.0807940000000000    0.1803880000000000 Mg
   0.8108520000000001    0.9449100000000000    0.3905430000000000 Mg
   0.1891479999999999    0.0550900000000000    0.6094570000000000 Mg
   0.5981760000000002    0.5186660000000000    0.1133720000000000 Si
   0.4018240000000001    0.4813340000000000    0.8866280000000001 Si
   0.4510820000000000    0.4422450000000001    0.6885230000000000 Si
   0.5489179999999999    0.5577550000000000    0.3114770000000000 Si
   0.9881839999999996    0.2220660000000000    0.9634440000000000 Si
   0.0118160000000000    0.7779340000000000    0.0365560000000000 Si
   0.0987980000000000    0.3664680000000000    0.4129400000000000 Si
   0.9012019999999999    0.6335320000000000    0.5870600000000000 Si
