Ce8 Se16
1.0
   5.6407829999999999    0.0000000000000000    0.0000000000000000
   0.0000000000000000    6.8840360000000000    0.0000000000000000
   0.0000000000000000    0.0000000000000000   16.4719079999999991
Ce Se
8 16
direct
   0.4999999999999999    0.9985260000000000    0.5396290000000000 Ce
   0.4999999999999999    0.0014740000000000    0.0396290000000000 Ce
   0.4999999999999999    0.5088490000000000    0.7995040000000000 Ce
   0.4999999999999999    0.4911510000000001    0.2995040000000000 Ce
   0.0000000000000000    0.9963340000000001    0.2349940000000000 Ce
   0.0000000000000000    0.0036660000000000    0.7349940000000000 Ce
   0.0000000000000000    0.5283470000000000    0.9933230000000000 Ce
   0.0000000000000000    0.4716530000000000    0.4933230000000000 Ce
   0.0000000000000000    0.3823850000000000    0.8269320000000000 Se
   0.0000000000000000    0.6176150000000000    0.3269320000000000 Se
   0.0000000000000000    0.8611960000000000    0.5651750000000000 Se
   0.0000000000000000    0.1388040000000000    0.0651750000000000 Se
   0.4999999999999999    0.3946570000000000    0.9709860000000000 Se
   0.4999999999999999    0.6053430000000000    0.4709860000000000 Se
   0.4999999999999999    0.8673500000000000    0.7061029999999999 Se
   0.4999999999999999    0.1326500000000000    0.2061030000000000 Se
   0.2543700000000000    0.3209750000000000    0.6394730000000000 Se
   0.7456300000000000    0.3209750000000000    0.6394730000000000 Se
   0.7456300000000000    0.6790250000000000    0.1394730000000000 Se
   0.2543700000000000    0.6790250000000000    0.1394730000000000 Se
   0.2468020000000000    0.8441010000000000    0.8939540000000000 Se
   0.7531980000000000    0.8441010000000000    0.8939540000000000 Se
   0.7531980000000000    0.1558990000000000    0.3939540000000000 Se
   0.2468020000000000    0.1558990000000000    0.3939540000000000 Se
