Cr4 O10
1.0
   3.3918979999999999    0.0000000000000000    0.0000000000000000
   0.0000000000000000    5.7882939999999996    0.0000000000000000
   0.0000000000000000    0.0000000000000000    9.6022289999999995
Cr O
4 10
direct
   0.5000000000000000    0.2094940000000000    0.3648680000000000 Cr
   0.5000000000000000    0.7905059999999999    0.6351320000000000 Cr
   0.5000000000000000    0.7094940000000000    0.1351320000000000 Cr
   0.5000000000000000    0.2905060000000000    0.8648679999999999 Cr
   0.0000000000000000    0.2971440000000000    0.3995680000000000 O
   0.0000000000000000    0.7028560000000000    0.6004320000000000 O
   0.0000000000000000    0.7971440000000000    0.1004320000000000 O
   0.0000000000000000    0.2028560000000000    0.8995679999999999 O
   0.5000000000000000    0.5550440000000000    0.2811460000000000 O
   0.5000000000000000    0.4449560000000000    0.7188540000000000 O
   0.5000000000000000    0.0550440000000000    0.2188540000000000 O
   0.5000000000000000    0.9449560000000000    0.7811460000000000 O
   0.5000000000000000    0.0000000000000000    0.5000000000000000 O
   0.5000000000000000    0.5000000000000000    0.0000000000000000 O
