P8 O36
1.0
  13.5788969999999996    0.0000000000000000    0.0000000000000000
   0.0000000000000000    7.8776570000000001    0.0000000000000000
   0.0000000000000000    2.9993660000000002    7.8702079999999999
P O
8 36
direct
   0.1365500000000000    0.6452170000000000    0.4256540000000000 P
   0.6365499999999998    0.3547830000000000    0.0743460000000000 P
   0.8634500000000001    0.3547829999999999    0.5743460000000001 P
   0.3634500000000000    0.6452170000000000    0.9256540000000000 P
   0.1021000000000000    0.2394980000000000    0.0646460000000000 P
   0.6021000000000000    0.7605020000000000    0.4353540000000000 P
   0.8979000000000000    0.7605019999999999    0.9353540000000001 P
   0.3979000000000000    0.2394980000000000    0.5646460000000000 P
   0.0724060000000000    0.7941040000000000    0.4512160000000001 O
   0.5724060000000000    0.2058960000000000    0.0487840000000000 O
   0.9275940000000000    0.2058960000000000    0.5487840000000000 O
   0.4275940000000000    0.7941039999999999    0.9512160000000001 O
   0.2434360000000000    0.7152730000000000    0.4131020000000001 O
   0.7434350000000000    0.2847270000000001    0.0868980000000000 O
   0.7565640000000000    0.2847270000000001    0.5868980000000000 O
   0.2565640000000000    0.7152730000000000    0.9131020000000001 O
   0.1280690000000000    0.4587730000000000    0.5686790000000000 O
   0.6280690000000000    0.5412269999999999    0.9313210000000001 O
   0.8719310000000000    0.5412269999999999    0.4313210000000001 O
   0.3719310000000000    0.4587730000000000    0.0686790000000000 O
   0.1060000000000000    0.6139350000000001    0.2620190000000000 O
   0.6060000000000000    0.3860650000000000    0.2379810000000000 O
   0.8940000000000000    0.3860650000000000    0.7379810000000001 O
   0.3940000000000000    0.6139350000000000    0.7620190000000001 O
   0.1680460000000000    0.0872030000000000    0.0492010000000000 O
   0.6680460000000000    0.9127969999999997    0.4507990000000001 O
   0.8319540000000000    0.9127970000000000    0.9507989999999999 O
   0.3319540000000000    0.0872030000000000    0.5492010000000002 O
   0.9926950000000000    0.1935220000000000    0.0537440000000000 O
   0.4926950000000000    0.8064780000000001    0.4462560000000000 O
   0.0073050000000000    0.8064780000000003    0.9462560000000001 O
   0.5073050000000000    0.1935220000000000    0.5537440000000001 O
   0.1195060000000000    0.2586849999999999    0.2380150000000000 O
   0.6195060000000000    0.7413149999999999    0.2619850000000000 O
   0.8804940000000000    0.7413149999999997    0.7619850000000000 O
   0.3804940000000001    0.2586849999999999    0.7380150000000001 O
   0.1278150000000000    0.4177699999999999    0.9194480000000002 O
   0.6278149999999999    0.5822299999999999    0.5805520000000000 O
   0.8721850000000000    0.5822299999999999    0.0805520000000000 O
   0.3721850000000000    0.4177699999999999    0.4194480000000000 O
   0.1389180000000000    0.0179670000000000    0.6364330000000000 O
   0.6389180000000000    0.9820330000000000    0.8635670000000001 O
   0.8610820000000000    0.9820329999999998    0.3635670000000000 O
   0.3610820000000000    0.0179670000000000    0.1364330000000000 O
