Rb3 Pb1
1.0
   0.0000000000000000    4.7491289999999999    4.7491289999999999
   4.7491289999999999    0.0000000000000000    4.7491289999999999
   4.7491289999999999    4.7491289999999999    0.0000000000000000
Rb Pb
3 1
direct
   0.2500000000000000    0.2500000000000000    0.2500000000000000 Rb
   0.7499999999999999    0.7500000000000000    0.7500000000000000 Rb
   0.4999999999999999    0.5000000000000000    0.5000000000000000 Rb
   0.0000000000000000    0.0000000000000000    0.0000000000000000 Pb
