Ho3 Sn7
1.0
   2.2023779999999999  -13.3150370000000002    0.0000000000000000
   2.2023779999999999   13.3150370000000002    0.0000000000000000
   0.0000000000000000    0.0000000000000000    4.4668260000000002
Ho Sn
3 7
direct
   0.0000000000000000    0.0000000000000000    0.5000000000000000 Ho
   0.3105129999999998    0.6894870000000000    0.0000000000000000 Ho
   0.6894869999999998    0.3105129999999999    0.0000000000000000 Ho
   0.4999999999999999    0.5000000000000000    0.0000000000000000 Sn
   0.4028979999999999    0.5971020000000000    0.5000000000000000 Sn
   0.5971020000000000    0.4028979999999999    0.5000000000000000 Sn
   0.0964080000000000    0.9035920000000000    0.0000000000000000 Sn
   0.9035920000000000    0.0964080000000000    0.0000000000000000 Sn
   0.2108959999999999    0.7891040000000000    0.5000000000000000 Sn
   0.7891040000000000    0.2108959999999999    0.5000000000000000 Sn
