Ta2 S4
1.0
   1.6723120000000000   -2.8965290000000001    0.0000000000000000
   1.6723120000000000    2.8965290000000001    0.0000000000000000
   0.0000000000000000    0.0000000000000000   17.6910220000000002
Ta S
2 4
direct
   0.3333330000000000    0.6666670000000000    0.7500000000000000 Ta
   0.6666670000000000    0.3333330000000000    0.2500000000000000 Ta
   0.0000000000000000    0.0000000000000000    0.8383429999999999 S
   0.0000000000000000    0.0000000000000000    0.6616570000000001 S
   0.0000000000000000    0.0000000000000000    0.3383430000000000 S
   0.0000000000000000    0.0000000000000000    0.1616570000000000 S
