Rb12 As44
1.0
  11.1668719999999997    0.0000000000000000    0.0000000000000000
   0.0000000000000000   11.6756080000000004    0.0000000000000000
   0.0000000000000000    0.0000000000000000   15.4186099999999993
Rb As
12 44
direct
   0.9103059999999999    0.2689190000000000    0.4835600000000000 Rb
   0.2500000000000000    0.0000000000000000    0.2938100000000001 Rb
   0.0896940000000000    0.7689190000000000    0.0164400000000000 Rb
   0.4103060000000001    0.2689190000000000    0.5164400000000000 Rb
   0.9103059999999999    0.2310810000000000    0.9835600000000001 Rb
   0.7500000000000001    0.5000000000000000    0.2061900000000000 Rb
   0.7500000000000001    0.0000000000000000    0.7061900000000001 Rb
   0.2500000000000000    0.5000000000000000    0.7938100000000001 Rb
   0.4103060000000001    0.2310810000000000    0.0164400000000000 Rb
   0.5896940000000001    0.7689190000000000    0.9835600000000001 Rb
   0.5896940000000001    0.7310810000000001    0.4835600000000000 Rb
   0.0896940000000000    0.7310810000000001    0.5164400000000000 Rb
   0.5682060000000000    0.8867620000000002    0.2828820000000001 As
   0.3974580000000000    0.9324580000000001    0.6356960000000000 As
   0.5032910000000000    0.4627480000000000    0.3538000000000001 As
   0.6025420000000000    0.4324580000000001    0.8643040000000000 As
   0.6731300000000000    0.4229640000000000    0.6165190000000000 As
   0.9317940000000000    0.3867620000000001    0.7828820000000000 As
   0.9967090000000000    0.5372520000000000    0.3538000000000001 As
   0.0032910000000000    0.0372520000000000    0.1462000000000000 As
   0.2787330000000000    0.8207570000000001    0.7449330000000000 As
   0.7500000000000001    0.5000000000000000    0.9683040000000002 As
   0.2500000000000000    0.5000000000000000    0.0316960000000000 As
   0.7787330000000001    0.8207570000000001    0.2550670000000000 As
   0.5032910000000000    0.0372520000000000    0.8538000000000001 As
   0.0682060000000000    0.8867620000000002    0.7171180000000001 As
   0.1025420000000000    0.4324580000000001    0.1356960000000000 As
   0.7787330000000001    0.6792430000000002    0.7550670000000002 As
   0.6025420000000000    0.0675420000000000    0.3643040000000001 As
   0.4967090000000000    0.9627480000000002    0.1462000000000000 As
   0.1731300000000000    0.0770360000000000    0.8834810000000000 As
   0.9967090000000000    0.9627480000000002    0.8538000000000001 As
   0.7500000000000001    0.0000000000000000    0.4683040000000000 As
   0.0682060000000000    0.6132379999999999    0.2171180000000000 As
   0.8268700000000001    0.9229640000000000    0.1165190000000000 As
   0.1731300000000000    0.4229640000000000    0.3834810000000001 As
   0.8974580000000000    0.9324580000000001    0.3643040000000001 As
   0.8268700000000001    0.5770360000000001    0.6165190000000000 As
   0.3268700000000000    0.5770360000000001    0.3834810000000001 As
   0.2212670000000000    0.1792430000000000    0.7449330000000000 As
   0.4317940000000000    0.1132380000000000    0.7171180000000001 As
   0.7212670000000001    0.1792430000000000    0.2550670000000000 As
   0.4967090000000000    0.5372520000000000    0.6462000000000000 As
   0.0032910000000000    0.4627480000000000    0.6462000000000000 As
   0.2787330000000000    0.6792430000000002    0.2449330000000000 As
   0.5682060000000000    0.6132379999999999    0.7828820000000000 As
   0.3974580000000000    0.5675420000000000    0.1356960000000000 As
   0.1025420000000000    0.0675420000000000    0.6356960000000000 As
   0.3268700000000000    0.9229640000000000    0.8834810000000000 As
   0.7212670000000001    0.3207570000000001    0.7550670000000002 As
   0.2212670000000000    0.3207570000000001    0.2449330000000000 As
   0.8974580000000000    0.5675420000000000    0.8643040000000000 As
   0.6731300000000000    0.0770360000000000    0.1165190000000000 As
   0.4317940000000000    0.3867620000000001    0.2171180000000000 As
   0.9317940000000000    0.1132380000000000    0.2828820000000001 As
   0.2500000000000000    0.0000000000000000    0.5316959999999999 As
