Nb4 N4
1.0
   1.4953740000000000   -2.5900639999999999    0.0000000000000000
   1.4953740000000000    2.5900639999999999    0.0000000000000000
   0.0000000000000000    0.0000000000000000   11.4614049999999992
Nb N
4 4
direct
   0.3333330000000000    0.6666670000000000    0.3771510000000000 Nb
   0.6666670000000000    0.3333329999999999    0.6228490000000000 Nb
   0.6666670000000000    0.3333329999999999    0.8771509999999999 Nb
   0.3333330000000000    0.6666670000000000    0.1228490000000000 Nb
   0.0000000000000000    0.0000000000000000    0.5000000000000000 N
   0.0000000000000000    0.0000000000000000    0.0000000000000000 N
   0.3333330000000000    0.6666670000000000    0.7500000000000000 N
   0.6666670000000000    0.3333329999999999    0.2500000000000000 N
