Nb12 O29
1.0
   1.9351870000000000   10.5651209999999995    0.0000000000000000
  -1.9351870000000000   10.5651209999999995    0.0000000000000000
   0.0000000000000000    6.2807029999999999   14.7297360000000008
Nb O
12 29
direct
   0.0670320000000000    0.0670320000000000    0.3987280000000001 Nb
   0.6982270000000000    0.6982270000000000    0.4006680000000000 Nb
   0.8804400000000000    0.8804400000000000    0.4031030000000000 Nb
   0.1437690000000000    0.1437690000000000    0.1291620000000000 Nb
   0.7760369999999999    0.7760369999999999    0.1326950000000000 Nb
   0.9600179999999999    0.9600179999999999    0.1314760000000000 Nb
   0.9329680000000000    0.9329680000000000    0.6012720000000001 Nb
   0.3017730000000001    0.3017730000000001    0.5993320000000000 Nb
   0.1195600000000000    0.1195600000000000    0.5968970000000000 Nb
   0.8562309999999997    0.8562309999999997    0.8708380000000001 Nb
   0.2239630000000001    0.2239630000000001    0.8673050000000000 Nb
   0.0399820000000000    0.0399820000000000    0.8685240000000001 Nb
   0.0000000000000000    0.0000000000000000    0.0000000000000000 O
   0.1656300000000000    0.1656300000000000    0.4283810000000001 O
   0.3670320000000000    0.3670320000000000    0.4422800000000001 O
   0.5865909999999999    0.5865909999999999    0.4142410000000000 O
   0.7814480000000000    0.7814480000000000    0.4160850000000000 O
   0.9695070000000000    0.9695070000000000    0.4366480000000000 O
   0.1002040000000000    0.1002040000000000    0.2763940000000000 O
   0.7293910000000000    0.7293910000000000    0.2777120000000000 O
   0.9215719999999999    0.9215719999999999    0.2823540000000000 O
   0.0549850000000000    0.0549850000000000    0.1346720000000000 O
   0.2482150000000000    0.2482150000000000    0.1409860000000000 O
   0.4536960000000000    0.4536960000000000    0.1488100000000000 O
   0.6657399999999999    0.6657399999999999    0.1390260000000000 O
   0.8614619999999998    0.8614619999999998    0.1388680000000000 O
   0.1876419999999999    0.1876419999999999    0.9987680000000001 O
   0.8343699999999999    0.8343699999999999    0.5716190000000000 O
   0.6329680000000000    0.6329680000000000    0.5577200000000000 O
   0.4134090000000001    0.4134090000000001    0.5857590000000001 O
   0.2185520000000000    0.2185520000000000    0.5839150000000001 O
   0.0304930000000000    0.0304930000000000    0.5633520000000000 O
   0.8997959999999998    0.8997959999999998    0.7236060000000001 O
   0.2706089999999999    0.2706089999999999    0.7222880000000002 O
   0.0784280000000000    0.0784280000000000    0.7176460000000001 O
   0.9450150000000000    0.9450150000000000    0.8653280000000000 O
   0.7517850000000001    0.7517850000000001    0.8590140000000002 O
   0.5463039999999999    0.5463039999999999    0.8511900000000000 O
   0.3342599999999999    0.3342599999999999    0.8609740000000000 O
   0.1385380000000000    0.1385380000000000    0.8611320000000000 O
   0.8123580000000000    0.8123580000000000    0.0012320000000000 O
