Mg2 Sb4
1.0
   1.6645909999999999    5.9854750000000001    0.0000000000000000
  -1.6645909999999999    5.9854750000000001    0.0000000000000000
   0.0000000000000000    2.5503629999999999    7.9083560000000004
Mg Sb
2 4
direct
   0.8078940000000001    0.8078940000000002    0.6462450000000000 Mg
   0.1921060000000000    0.1921060000000000    0.3537550000000000 Mg
   0.1573910000000001    0.1573910000000001    0.9469819999999999 Sb
   0.5512419999999999    0.5512420000000000    0.6563330000000001 Sb
   0.4487580000000000    0.4487580000000001    0.3436669999999999 Sb
   0.8426090000000001    0.8426090000000002    0.0530180000000000 Sb
