Na4 O4
1.0
   3.0065469999999999    0.0000000000000000    0.0000000000000000
   0.0000000000000000    5.5259679999999998    0.0000000000000000
   0.0000000000000000    0.0000000000000000    6.3700840000000003
Na O
4 4
direct
   0.8194740000000000    0.7500000000000000    0.5000000000000000 Na
   0.1805260000000000    0.2500000000000000    0.0000000000000000 Na
   0.1805260000000000    0.2500000000000000    0.5000000000000000 Na
   0.8194740000000000    0.7500000000000000    0.0000000000000000 Na
   0.3288070000000000    0.9334869999999998    0.7500000000000000 O
   0.6711930000000000    0.0665130000000000    0.2500000000000000 O
   0.3288070000000000    0.5665130000000000    0.2500000000000000 O
   0.6711930000000000    0.4334870000000000    0.7500000000000000 O
