Yb6 Si2
1.0
   3.3991389999999999   -5.8874810000000002    0.0000000000000000
   3.3991389999999999    5.8874810000000002    0.0000000000000000
   0.0000000000000000    0.0000000000000000    5.3030359999999996
Yb Si
6 2
direct
   0.1762820000000000    0.3525650000000001    0.2500000000000000 Yb
   0.6474349999999999    0.8237180000000001    0.2500000000000000 Yb
   0.1762819999999999    0.8237180000000002    0.2500000000000000 Yb
   0.8237179999999998    0.6474350000000001    0.7500000000000000 Yb
   0.3525650000000000    0.1762820000000000    0.7500000000000000 Yb
   0.8237180000000000    0.1762820000000000    0.7500000000000000 Yb
   0.3333329999999999    0.6666670000000001    0.7500000000000000 Si
   0.6666670000000000    0.3333330000000000    0.2500000000000000 Si
