Sm6 Lu2
1.0
   3.6274000000000002   -6.2828410000000003    0.0000000000000000
   3.6274000000000002    6.2828410000000003    0.0000000000000000
   0.0000000000000000    0.0000000000000000    5.8223520000000004
Sm Lu
6 2
direct
   0.1679499999999999    0.3358989999999999    0.2500000000000000 Sm
   0.6641009999999999    0.8320499999999998    0.2500000000000000 Sm
   0.1679500000000000    0.8320500000000000    0.2500000000000000 Sm
   0.8320499999999998    0.6641009999999999    0.7499999999999999 Sm
   0.3358989999999999    0.1679499999999999    0.7499999999999999 Sm
   0.8320500000000000    0.1679500000000000    0.7499999999999999 Sm
   0.3333330000000000    0.6666670000000000    0.7499999999999999 Lu
   0.6666670000000000    0.3333330000000000    0.2500000000000000 Lu
