V4 F18
1.0
   2.6017790000000001   -4.5064130000000002    0.0000000000000000
   2.6017790000000001    4.5064130000000002    0.0000000000000000
   0.0000000000000000    0.0000000000000000   14.4695630000000008
V F
4 18
direct
   0.0000000000000000    0.0000000000000000    0.3509360000000001 V
   0.0000000000000000    0.0000000000000000    0.1490640000000000 V
   0.0000000000000000    0.0000000000000000    0.6490640000000000 V
   0.0000000000000000    0.0000000000000000    0.8509360000000000 V
   0.0000000000000000    0.7026760000000000    0.5931560000000000 F
   0.2973240000000000   -0.0000000000000000    0.0931560000000000 F
  -0.0000000000000000    0.2973240000000000    0.0931560000000000 F
   0.2973240000000000    0.2973240000000000    0.5931560000000000 F
   0.2641460000000000    0.2641460000000000    0.2500000000000000 F
   0.7026760000000000    0.0000000000000000    0.5931560000000000 F
   0.2973240000000000    0.2973240000000000    0.9068440000000000 F
   0.7026760000000000    0.7026760000000000    0.0931560000000000 F
   0.2641460000000000   -0.0000000000000000    0.7500000000000000 F
   0.2973240000000000   -0.0000000000000000    0.4068440000000000 F
   0.7358540000000000    0.7358540000000000    0.7500000000000000 F
   0.7026760000000000    0.7026760000000000    0.4068440000000000 F
   0.0000000000000000    0.7026760000000000    0.9068440000000000 F
  -0.0000000000000000    0.7358540000000000    0.2500000000000000 F
   0.7026760000000000    0.0000000000000000    0.9068440000000000 F
   0.7358540000000000   -0.0000000000000000    0.2500000000000000 F
  -0.0000000000000000    0.2973240000000000    0.4068440000000000 F
  -0.0000000000000000    0.2641460000000000    0.7500000000000000 F
