Zr16 Cu8
1.0
   0.0000000000000000    6.1545490000000003    6.1545490000000003
   6.1545490000000003    0.0000000000000000    6.1545490000000003
   6.1545490000000003    6.1545490000000003    0.0000000000000000
Zr Cu
16 8
direct
   0.9351290000000000    0.5648710000000000    0.5648710000000001 Zr
   0.9351290000000000    0.5648710000000000    0.9351289999999999 Zr
   0.6851290000000000    0.3148710000000000    0.3148710000000000 Zr
   0.3148710000000000    0.3148710000000000    0.6851290000000000 Zr
   0.3148710000000000    0.6851290000000000    0.6851289999999999 Zr
   0.5648710000000000    0.5648710000000000    0.9351290000000000 Zr
   0.5648710000000000    0.9351290000000000    0.9351290000000001 Zr
   0.1250000000000000    0.1250000000000000    0.1250000000000000 Zr
   0.9351290000000000    0.9351290000000000    0.5648710000000000 Zr
   0.3148710000000000    0.6851290000000000    0.3148710000000000 Zr
   0.5648710000000000    0.9351290000000000    0.5648709999999999 Zr
   0.6851290000000000    0.3148710000000000    0.6851290000000001 Zr
   0.6851290000000000    0.6851290000000000    0.3148710000000000 Zr
   0.1250000000000000    0.6250000000000000    0.1250000000000000 Zr
   0.1250000000000000    0.1250000000000000    0.6250000000000000 Zr
   0.6250000000000000    0.1250000000000000    0.1250000000000000 Zr
   0.9986940000000000    0.3337690000000000    0.3337689999999999 Cu
   0.3337690000000000    0.9986940000000000    0.3337689999999999 Cu
   0.9162310000000000    0.9162310000000000    0.9162310000000000 Cu
   0.2513059999999999    0.9162310000000000    0.9162310000000000 Cu
   0.9162310000000000    0.2513059999999999    0.9162310000000000 Cu
   0.9162310000000001    0.9162310000000000    0.2513059999999998 Cu
   0.3337689999999999    0.3337690000000000    0.9986940000000000 Cu
   0.3337689999999999    0.3337690000000000    0.3337690000000000 Cu
