Sc2 Se4
1.0
   3.9508519999999998    0.0000000000000000    0.0000000000000000
   0.0000000000000000    3.9508519999999998    0.0000000000000000
   0.0000000000000000    0.0000000000000000    7.9333090000000004
Sc Se
2 4
direct
   0.0000000000000000    0.5000000000000000    0.7267760000000001 Sc
   0.5000000000000000    0.0000000000000000    0.2732240000000001 Sc
   0.0000000000000000    0.5000000000000000    0.3733100000000000 Se
   0.5000000000000000    0.0000000000000000    0.6266900000000001 Se
   0.0000000000000000    0.0000000000000000    0.0000000000000000 Se
   0.5000000000000000    0.5000000000000000    0.0000000000000000 Se
