Tm2 S4
1.0
   0.0000000000000000    3.8784700000000001    3.8784700000000001
   3.8784700000000001    0.0000000000000000    3.8784700000000001
   3.8784700000000001    3.8784700000000001    0.0000000000000000
Tm S
2 4
direct
   0.7500000000000001    0.7500000000000001    0.7500000000000001 Tm
   0.5000000000000001    0.5000000000000000    0.5000000000000001 Tm
   0.1250000000000001    0.1250000000000001    0.6250000000000001 S
   0.1250000000000001    0.6250000000000000    0.1250000000000001 S
   0.1250000000000000    0.1250000000000000    0.1250000000000000 S
   0.6250000000000000    0.1250000000000001    0.1250000000000001 S
