P4 S2
1.0
  -3.2151749999999999    3.2151749999999999    2.3568159999999998
   3.2151749999999999   -3.2151749999999999    2.3568159999999998
   3.2151749999999999    3.2151749999999999   -2.3568159999999998
P S
4 2
direct
   0.1250000000000000    0.8750000000000001    0.2500000000000001 P
   0.6250000000000001    0.8750000000000001    0.7500000000000000 P
   0.1250000000000000    0.3749999999999999    0.2500000000000000 P
   0.1250000000000000    0.8750000000000000    0.7499999999999999 P
   0.7499999999999999    0.2500000000000001    0.5000000000000000 S
   0.5000000000000000    0.5000000000000000    0.0000000000000000 S
