Ga62 Mo12
1.0
   9.5838839999999994    0.0000000000000000    0.0000000000000000
   0.7526890000000001    9.5562240000000003    0.0000000000000000
   0.7620050000000000    2.2706610000000000   14.3812709999999999
Ga Mo
62 12
direct
   0.4357610000000001    0.4726620000000000    0.3303920000000000 Ga
   0.5642389999999999    0.5273380000000002    0.6696080000000000 Ga
   0.0000000000000000    0.0000000000000000    0.0000000000000000 Ga
   0.5000000000000000    0.0000000000000000    0.5000000000000000 Ga
  -0.0000000000000000    0.5000000000000000    0.5000000000000000 Ga
   0.5000000000000000    0.5000000000000000    0.0000000000000000 Ga
   0.1106210000000000    0.8183890000000000    0.6086240000000001 Ga
   0.8893790000000000    0.1816110000000000    0.3913760000000000 Ga
   0.1604950000000000    0.3116110000000000    0.0838050000000000 Ga
   0.8395049999999999    0.6883890000000001    0.9161950000000000 Ga
   0.0705200000000000    0.5305420000000001    0.6722120000000000 Ga
   0.9294799999999999    0.4694580000000000    0.3277880000000000 Ga
   0.2785680000000000    0.1074950000000000    0.7070400000000000 Ga
   0.7214320000000000    0.8925050000000000    0.2929600000000000 Ga
   0.2106450000000001    0.5976380000000000    0.0209670000000000 Ga
   0.7893550000000000    0.4023620000000001    0.9790330000000000 Ga
   0.0741330000000000    0.2670500000000000    0.9170469999999999 Ga
   0.9258669999999999    0.7329500000000000    0.0829530000000000 Ga
   0.0186270000000000    0.2364010000000000    0.7373990000000000 Ga
   0.9813729999999999    0.7635990000000001    0.2626010000000000 Ga
   0.2693659999999999    0.8807920000000001    0.9620260000000002 Ga
   0.7306340000000000    0.1192080000000000    0.0379740000000000 Ga
   0.3433240000000000    0.1401270000000001    0.8818600000000000 Ga
   0.6566760000000000    0.8598730000000002    0.1181400000000000 Ga
   0.4347689999999999    0.9587080000000001    0.3261370000000000 Ga
   0.5652310000000000    0.0412920000000000    0.6738630000000000 Ga
   0.1493500000000000    0.0392310000000000    0.3629450000000000 Ga
   0.8506499999999998    0.9607690000000000    0.6370550000000001 Ga
   0.2017089999999999    0.3316160000000001    0.4026140000000000 Ga
   0.7982910000000000    0.6683840000000000    0.5973860000000000 Ga
   0.1062300000000000    0.5652990000000000    0.8527330000000000 Ga
   0.8937700000000001    0.4347010000000000    0.1472670000000000 Ga
   0.6284969999999999    0.0462050000000000    0.8583190000000001 Ga
   0.3715030000000000    0.9537950000000001    0.1416810000000000 Ga
   0.8341909999999999    0.1515200000000000    0.2128970000000000 Ga
   0.1658090000000001    0.8484800000000000    0.7871030000000000 Ga
   0.4017420000000000    0.7892260000000000    0.6474340000000000 Ga
   0.5982580000000001    0.2107740000000000    0.3525660000000000 Ga
   0.4398500000000000    0.2168660000000000    0.0500020000000000 Ga
   0.5601500000000000    0.7831340000000000    0.9499980000000001 Ga
   0.3281790000000000    0.3954810000000001    0.7344750000000000 Ga
   0.6718210000000000    0.6045190000000001    0.2655250000000000 Ga
   0.0894330000000000    0.0385240000000000    0.1751740000000000 Ga
   0.9105670000000000    0.9614760000000000    0.8248259999999999 Ga
   0.3412280000000000    0.2374510000000000    0.2426080000000000 Ga
   0.6587719999999999    0.7625490000000001    0.7573920000000000 Ga
   0.2784540000000000    0.7300060000000002    0.3092610000000000 Ga
   0.7215459999999999    0.2699940000000000    0.6907390000000000 Ga
   0.2144670000000000    0.0778500000000000    0.5355110000000000 Ga
   0.7855330000000000    0.9221499999999999    0.4644890000000000 Ga
   0.0491400000000000    0.7828720000000000    0.4368190000000001 Ga
   0.9508599999999999    0.2171280000000000    0.5631810000000000 Ga
   0.3983490000000000    0.6293390000000000    0.8254940000000000 Ga
   0.6016510000000002    0.3706610000000000    0.1745060000000000 Ga
   0.1771740000000000    0.5212100000000000    0.2164690000000000 Ga
   0.8228259999999998    0.4787900000000000    0.7835310000000000 Ga
   0.5667230000000000    0.3398869999999999    0.8528930000000000 Ga
   0.4332770000000001    0.6601130000000001    0.1471070000000000 Ga
   0.5464470000000000    0.6975490000000000    0.4558160000000000 Ga
   0.4535529999999999    0.3024510000000001    0.5441840000000000 Ga
   0.3001210000000000    0.5663560000000001    0.5202350000000000 Ga
   0.6998790000000000    0.4336440000000001    0.4797650000000000 Ga
   0.3032100000000000    0.8411260000000002    0.4721960000000000 Mo
   0.6967900000000000    0.1588740000000000    0.5278040000000001 Mo
   0.1853060000000000    0.3287480000000000    0.5905610000000000 Mo
   0.8146940000000000    0.6712520000000000    0.4094390000000000 Mo
   0.3042900000000000    0.3938330000000001    0.9281160000000001 Mo
   0.6957100000000001    0.6061670000000001    0.0718840000000000 Mo
   0.0640660000000000    0.2716410000000001    0.2547370000000000 Mo
   0.9359340000000000    0.7283590000000000    0.7452630000000000 Mo
   0.4252150000000000    0.9072880000000000    0.8083860000000000 Mo
   0.5747850000000000    0.0927120000000000    0.1916140000000000 Mo
   0.8285619999999999    0.2097000000000001    0.8721700000000000 Mo
   0.1714380000000001    0.7903000000000000    0.1278300000000000 Mo
