Na1 Sc3
1.0
  -2.3372649999999999    2.3372649999999999    4.8183319999999998
   2.3372649999999999   -2.3372649999999999    4.8183319999999998
   2.3372649999999999    2.3372649999999999   -4.8183319999999998
Na Sc
1 3
direct
   0.0000000000000000    0.0000000000000000    0.0000000000000000 Na
   0.7499999999999999    0.2500000000000001    0.4999999999999999 Sc
   0.2500000000000001    0.7499999999999999    0.4999999999999999 Sc
   0.5000000000000000    0.5000000000000000    0.0000000000000000 Sc
