Sr2 C12
1.0
   2.1668240000000001   -3.7530500000000000    0.0000000000000000
   2.1668240000000001    3.7530500000000000    0.0000000000000000
   0.0000000000000000    0.0000000000000000    9.9707369999999997
Sr C
2 12
direct
   0.3333330000000000    0.6666670000000000    0.2500000000000000 Sr
   0.6666670000000000    0.3333330000000000    0.7500000000000000 Sr
   0.3336910000000000    0.0000000000000000    0.0000000000000000 C
   0.6663090000000000    0.0000000000000000    0.0000000000000000 C
   0.0000000000000000    0.3336910000000000    0.0000000000000000 C
   0.6663090000000000    0.0000000000000000    0.5000000000000000 C
   0.0000000000000000    0.6663090000000000    0.0000000000000000 C
   0.3336910000000000    0.0000000000000000    0.5000000000000000 C
   0.6663090000000000    0.6663090000000000    0.0000000000000000 C
   0.0000000000000000    0.6663090000000000    0.5000000000000000 C
   0.3336910000000000    0.3336910000000000    0.0000000000000000 C
   0.0000000000000000    0.3336910000000000    0.5000000000000000 C
   0.3336910000000000    0.3336910000000000    0.5000000000000000 C
   0.6663090000000000    0.6663090000000000    0.5000000000000000 C
