B8 W4
1.0
   1.5093799999999999   -2.6143220000000000    0.0000000000000000
   1.5093799999999999    2.6143220000000000    0.0000000000000000
   0.0000000000000000    0.0000000000000000   14.0894870000000001
B W
8 4
direct
   0.0000000000000000    0.0000000000000000    0.2500000000000000 B
   0.0000000000000000    0.0000000000000000    0.7500000000000000 B
   0.3333329999999999    0.6666670000000000    0.7500000000000000 B
   0.6666669999999999    0.3333330000000000    0.2500000000000000 B
   0.3333329999999999    0.6666670000000000    0.5227250000000000 B
   0.6666669999999999    0.3333330000000000    0.4772750000000000 B
   0.6666669999999999    0.3333330000000000    0.0227250000000000 B
   0.3333329999999999    0.6666670000000000    0.9772749999999999 B
   0.3333329999999999    0.6666670000000000    0.3652400000000000 W
   0.6666669999999999    0.3333330000000000    0.6347600000000000 W
   0.6666669999999999    0.3333330000000000    0.8652400000000000 W
   0.3333329999999999    0.6666670000000000    0.1347600000000000 W
