V4 O6
1.0
   6.2359470000000004   -2.9999940000000000    0.0000000000000000
   6.2359470000000004    2.9999940000000000    0.0000000000000000
   4.7927070000000001    0.0000000000000000    4.9916890000000000
V O
4 6
direct
   0.0778620000000000    0.0778620000000000    0.0778620000000000 V
   0.4221380000000000    0.4221380000000000    0.4221380000000001 V
   0.9221380000000000    0.9221380000000000    0.9221380000000001 V
   0.5778620000000000    0.5778620000000000    0.5778620000000000 V
   0.2499999999999998    0.8380709999999999    0.6619290000000000 O
   0.3380710000000001    0.7500000000000001    0.1619290000000000 O
   0.1619290000000000    0.3380710000000000    0.7500000000000000 O
   0.7500000000000000    0.1619290000000001    0.3380710000000001 O
   0.6619290000000000    0.2500000000000000    0.8380710000000000 O
   0.8380710000000000    0.6619290000000000    0.2500000000000000 O
