Ta12 S2
1.0
   5.2247095799999999    0.0042156300000000   -0.7730565600000000
  -2.9555109300000000    6.2679339299999999   -3.0565304700000002
   0.0012037900000000   -0.0008362800000000    7.5790109899999996
Ta S
12 2
direct
   0.5580764300000000    0.7751051799999998    0.5904343500000000 Ta
   0.4419235700000000    0.2248948199999999    0.4095656500000000 Ta
   0.0027468700000000    0.3716829200000000    0.2952077099999999 Ta
   0.4999999999999999    0.0000000000000000   -0.0000000000000000 Ta
   0.1494164900000000    0.7210340299999998    0.1503146099999999 Ta
   0.2287791100000000    0.0643624000000000    0.6919238599999998 Ta
   0.5277988400000000    0.5751522999999998    0.8632026599999999 Ta
   0.7712208899999999    0.9356375999999998    0.3080761399999999 Ta
   0.8505835099999998    0.2789659700000000    0.8496853899999999 Ta
   0.9972531299999999    0.6283170800000000    0.7047922899999999 Ta
   0.0000000000000000    0.0000000000000000    0.0000000000000000 Ta
   0.4722011600000000    0.4248476999999999    0.1367973400000000 Ta
   0.0748786000000000    0.2996227800000000    0.5845931700000000 S
   0.9251213999999999    0.7003772199999998    0.4154068299999999 S
