La1 Pd5
1.0
   2.6981150000000000   -4.6732730000000000    0.0000000000000000
   2.6981150000000000    4.6732730000000000    0.0000000000000000
   0.0000000000000000    0.0000000000000000    4.5121070000000003
La Pd
1 5
direct
   0.0000000000000000    0.0000000000000000    0.0000000000000000 La
  -0.0000000000000000    0.5000000000000000    0.5000000000000000 Pd
   0.3333330000000000    0.6666670000000000    0.0000000000000000 Pd
   0.6666670000000000    0.3333330000000000    0.0000000000000000 Pd
   0.5000000000000000   -0.0000000000000000    0.5000000000000000 Pd
   0.5000000000000000    0.5000000000000000    0.5000000000000000 Pd
