Cd17 I34
1.0
   2.1677019999999998   -3.7545700000000002    0.0000000000000000
   2.1677019999999998    3.7545700000000002    0.0000000000000000
   0.0000000000000000    0.0000000000000000  130.4535370000000114
Cd I
17 34
direct
   0.0000000000000000    0.0000000000000000    0.4853910000000000 Cd
   0.3333330000000000    0.6666670000000000    0.7205540000000000 Cd
   0.0000000000000000    0.0000000000000000    0.3676510000000000 Cd
   0.3333330000000000    0.6666670000000000    0.6617720000000000 Cd
   0.3333330000000000    0.6666670000000000    0.9558229999999999 Cd
   0.6666670000000000    0.3333330000000000    0.8382210000000000 Cd
   0.3333330000000000    0.6666670000000000    0.5441360000000000 Cd
   0.3333330000000000    0.6666670000000000    0.8970789999999998 Cd
   0.3333330000000000    0.6666670000000000    0.3088350000000000 Cd
   0.0000000000000000    0.0000000000000000    0.2499590000000000 Cd
   0.0000000000000000    0.0000000000000000    0.1323650000000000 Cd
   0.0000000000000000    0.0000000000000000    0.0147310000000000 Cd
   0.0000000000000000    0.0000000000000000    0.6029229999999999 Cd
   0.3333330000000000    0.6666670000000000    0.0735330000000000 Cd
   0.3333330000000000    0.6666670000000000    0.4264550000000000 Cd
   0.3333330000000000    0.6666670000000000    0.7793890000000000 Cd
   0.3333330000000000    0.6666670000000000    0.1911850000000000 Cd
   0.6666670000000000    0.3333330000000000    0.3220420000000000 I
   0.6666670000000000    0.3333330000000000    0.4396660000000000 I
   0.6666670000000000    0.3333330000000000    0.5573410000000000 I
   0.0000000000000000    0.0000000000000000    0.9426160000000000 I
   0.0000000000000000    0.0000000000000000    0.2956300000000000 I
   0.0000000000000000    0.0000000000000000    0.8838740000000000 I
   0.6666670000000000    0.3333330000000000    0.1455630000000000 I
   0.0000000000000000    0.0000000000000000    0.1779760000000000 I
   0.0000000000000000    0.0000000000000000    0.6485609999999999 I
   0.3333330000000000    0.6666670000000000    0.2367520000000000 I
   0.6666670000000000    0.3333330000000000    0.9690310000000000 I
   0.6666670000000000    0.3333330000000000    0.2043970000000000 I
   0.3333330000000000    0.6666670000000000    0.4721950000000000 I
   0.6666670000000000    0.3333330000000000    0.6749849999999999 I
   0.3333330000000000    0.6666670000000000    0.1191580000000000 I
   0.6666670000000000    0.3333330000000000    0.3808559999999999 I
   0.0000000000000000    0.0000000000000000    0.4132459999999999 I
   0.0000000000000000    0.0000000000000000    0.0603280000000000 I
   0.3333330000000000    0.6666670000000000    0.8514170000000000 I
   0.6666670000000000    0.3333330000000000    0.0279290000000000 I
   0.3333330000000000    0.6666670000000000    0.0015290000000000 I
   0.0000000000000000    0.0000000000000000    0.5309360000000000 I
   0.3333330000000000    0.6666670000000000    0.3544470000000000 I
   0.6666670000000000    0.3333330000000000    0.6161300000000000 I
   0.0000000000000000    0.0000000000000000    0.7073460000000000 I
   0.6666670000000000    0.3333330000000000    0.9102860000000000 I
   0.6666670000000000    0.3333330000000000    0.0867350000000000 I
   0.6666670000000000    0.3333330000000000    0.7925960000000000 I
   0.0000000000000000    0.0000000000000000    0.8250160000000000 I
   0.3333330000000000    0.6666670000000000    0.5897130000000000 I
   0.0000000000000000    0.0000000000000000    0.7661839999999999 I
   0.6666670000000000    0.3333330000000000    0.7337669999999999 I
   0.6666670000000000    0.3333330000000000    0.2631630000000000 I
   0.6666670000000000    0.3333330000000000    0.4985880000000000 I
