Pb32 O32
1.0
   5.4060170000000003    0.0000000000000000    0.0000000000000000
   0.0000000000000000    5.7455140000000000    0.0000000000000000
   0.0000000000000000    0.0000000000000000   45.9314549999999997
Pb O
32 32
direct
   0.2206600000000000    0.7665740000000000    0.1250260000000000 Pb
   0.2205660000000000    0.2285360000000000    0.9375080000000000 Pb
   0.7793400000000000    0.2334260000000000    0.8749739999999999 Pb
   0.7794480000000000    0.7448380000000000    0.1874930000000000 Pb
   0.7788670000000000    0.2287650000000000    0.2500000000000000 Pb
   0.7794340000000000    0.7285359999999999    0.5624920000000000 Pb
   0.7794340000000000    0.7714640000000001    0.0624920000000000 Pb
   0.2205520000000000    0.2551620000000000    0.8125070000000000 Pb
   0.7788670000000000    0.2712350000000000    0.7500000000000000 Pb
   0.2211330000000000    0.7287650000000000    0.2500000000000000 Pb
   0.2211330000000000    0.7712350000000000    0.7500000000000000 Pb
   0.7794480000000000    0.7551620000000000    0.8125070000000000 Pb
   0.2205660000000000    0.2714640000000000    0.4375080000000000 Pb
   0.7793400000000000    0.2665740000000000    0.3749740000000000 Pb
   0.2206600000000000    0.7334260000000000    0.8749739999999999 Pb
   0.2206600000000000    0.7665740000000000    0.3749740000000000 Pb
   0.7796780000000001    0.2500000000000000    0.5000000000000000 Pb
   0.2206600000000000    0.7334260000000000    0.6250260000000000 Pb
   0.2203220000000000    0.7500000000000000    0.0000000000000000 Pb
   0.2203220000000000    0.7500000000000000    0.5000000000000000 Pb
   0.2205520000000000    0.2551620000000000    0.6874930000000000 Pb
   0.7796780000000001    0.2500000000000000    0.0000000000000000 Pb
   0.7794340000000000    0.7285359999999999    0.9375080000000000 Pb
   0.7794340000000000    0.7714640000000001    0.4375080000000000 Pb
   0.7794480000000000    0.7448380000000000    0.3125070000000000 Pb
   0.7793400000000000    0.2334260000000000    0.6250260000000000 Pb
   0.7793400000000000    0.2665740000000000    0.1250260000000000 Pb
   0.2205660000000000    0.2285360000000000    0.5624920000000000 Pb
   0.2205520000000000    0.2448380000000000    0.1874930000000000 Pb
   0.2205660000000000    0.2714640000000000    0.0624920000000000 Pb
   0.7794480000000000    0.7551620000000000    0.6874930000000000 Pb
   0.2205520000000000    0.2448380000000000    0.3125070000000000 Pb
   0.9969360000000000    0.9760460000000001    0.9062310000000000 O
   0.9915789999999999    0.4816720000000000    0.2812540000000000 O
   0.9915789999999999    0.0183280000000000    0.7187460000000000 O
   0.0084210000000000    0.9816720000000000    0.2187460000000000 O
   0.0084210000000000    0.5183280000000000    0.7812540000000000 O
   0.0030640000000000    0.4760460000000000    0.5937690000000000 O
   0.9915789999999999    0.4816720000000000    0.2187460000000000 O
   0.9894640000000000    0.0075500000000000    0.1562720000000000 O
   0.9891849999999999    0.9855460000000001    0.5312340000000000 O
   0.9915789999999999    0.0183280000000000    0.7812540000000000 O
   0.0108150000000000    0.0144540000000000    0.4687660000000000 O
   0.0108150000000000    0.4855460000000000    0.5312340000000000 O
   0.9894640000000000    0.4924500000000000    0.6562720000000000 O
   0.9891849999999999    0.5144540000000000    0.4687660000000000 O
   0.0108150000000000    0.0144540000000000    0.0312340000000000 O
   0.0105360000000000    0.9924500000000001    0.6562720000000000 O
   0.0108150000000000    0.4855460000000000    0.9687660000000000 O
   0.9894640000000000    0.0075500000000000    0.3437280000000000 O
   0.0030640000000000    0.4760460000000000    0.9062310000000000 O
   0.0084210000000000    0.9816720000000000    0.2812540000000000 O
   0.9891849999999999    0.9855460000000001    0.9687660000000000 O
   0.9894640000000000    0.4924500000000000    0.8437280000000000 O
   0.9969360000000000    0.5239540000000000    0.4062310000000000 O
   0.9969360000000000    0.9760460000000001    0.5937690000000000 O
   0.9891849999999999    0.5144540000000000    0.0312340000000000 O
   0.0105360000000000    0.9924500000000001    0.8437280000000000 O
   0.0105360000000000    0.5075499999999999    0.1562720000000000 O
   0.9969360000000000    0.5239540000000000    0.0937690000000000 O
   0.0030640000000000    0.0239540000000000    0.4062310000000000 O
   0.0030640000000000    0.0239540000000000    0.0937690000000000 O
   0.0084210000000000    0.5183280000000000    0.7187460000000000 O
   0.0105360000000000    0.5075499999999999    0.3437280000000000 O
