Mg26 Ir6
1.0
   5.4427399999999997   -8.0510900000000003    0.0000000000000000
   5.4427399999999997    8.0510900000000003    0.0000000000000000
  -6.4667120000000002    0.0000000000000000    7.2543160000000002
Mg Ir
26 6
direct
   0.5000000000000000   -0.0000000000000000    0.0000000000000000 Mg
   0.0000000000000000    0.5000000000000000    0.0000000000000000 Mg
   0.0000000000000000    0.0000000000000000    0.5000000000000000 Mg
   0.0000000000000000    0.5000000000000000    0.5000000000000000 Mg
   0.5000000000000000    0.0000000000000000    0.5000000000000000 Mg
   0.5000000000000000    0.5000000000000000    0.0000000000000000 Mg
   0.6188489999999999    0.8811509999999999    0.2500000000000000 Mg
   0.8811509999999999    0.2500000000000001    0.6188490000000001 Mg
   0.2499999999999999    0.6188490000000000    0.8811510000000000 Mg
   0.3811510000000000    0.1188490000000000    0.7500000000000001 Mg
   0.1188490000000000    0.7500000000000000    0.3811510000000001 Mg
   0.7500000000000000    0.3811510000000000    0.1188490000000000 Mg
   0.2500000000000000    0.2500000000000000    0.2500000000000000 Mg
   0.7500000000000000    0.7500000000000000    0.7500000000000001 Mg
   0.6101230000000000    0.4030020000000001    0.7221800000000002 Mg
   0.4030020000000001    0.7221800000000000    0.6101230000000000 Mg
   0.7221800000000000    0.6101230000000000    0.4030020000000000 Mg
   0.0969980000000000    0.8898770000000000    0.7778200000000000 Mg
   0.8898770000000001    0.7778200000000001    0.0969980000000000 Mg
   0.7778199999999998    0.0969979999999999    0.8898770000000000 Mg
   0.3898770000000000    0.5969980000000000    0.2778200000000000 Mg
   0.5969980000000000    0.2778200000000000    0.3898770000000000 Mg
   0.2778200000000000    0.3898770000000000    0.5969980000000000 Mg
   0.9030019999999999    0.1101230000000000    0.2221800000000000 Mg
   0.1101229999999999    0.2221799999999999    0.9030020000000000 Mg
   0.2221800000000000    0.9030019999999999    0.1101230000000000 Mg
   0.7500000000000000    0.9222710000000000    0.5777290000000000 Ir
   0.5777290000000000    0.7499999999999999    0.9222710000000000 Ir
   0.9222710000000001    0.5777290000000003    0.7500000000000001 Ir
   0.2500000000000000    0.0777290000000000    0.4222710000000001 Ir
   0.4222710000000000    0.2500000000000000    0.0777290000000000 Ir
   0.0777290000000000    0.4222710000000000    0.2500000000000000 Ir
