Pr2 Au4
1.0
  -2.3630019999999998    3.6153529999999998    4.1863510000000002
   2.3630019999999998   -3.6153529999999998    4.1863510000000002
   2.3630019999999998    3.6153529999999998   -4.1863510000000002
Pr Au
2 4
direct
   0.7154010000000000    0.4654010000000000    0.2499999999999999 Pr
   0.2845990000000000    0.5345989999999999    0.7500000000000000 Pr
   0.3034410000000000    0.8364790000000000    0.4669630000000001 Au
   0.6965590000000000    0.1635210000000000    0.5330370000000000 Au
   0.8695159999999998    0.8364790000000000    0.0330370000000001 Au
   0.1304840000000000    0.1635210000000000    0.9669630000000000 Au
