Mg3 Zn3
1.0
   2.5635979999999998   -4.4226060000000000    0.0000000000000000
   2.5635979999999998    4.4226060000000000    0.0000000000000000
   0.0000000000000000    0.0000000000000000    4.8223719999999997
Mg Zn
3 3
direct
   0.9816950000000000    0.3277850000000000    0.0000000000000000 Mg
   0.3277850000000000    0.9816950000000000    0.0000000000000000 Mg
   0.3554700000000000    0.3554700000000000    0.5000000000000000 Mg
   0.6717689999999999    0.6717689999999999    0.0000000000000000 Zn
   0.9901020000000000    0.6731790000000000    0.5000000000000000 Zn
   0.6731790000000000    0.9901020000000000    0.5000000000000000 Zn
