Mg4 Si6
1.0
   1.9310369999999999    5.7896840000000003    0.0000000000000000
  -1.9310369999999999    5.7896840000000003    0.0000000000000000
   0.0000000000000000    2.6509909999999999    8.0059649999999998
Mg Si
4 6
direct
   0.1422610000000001    0.1422610000000001    0.9924350000000000 Mg
   0.8577390000000000    0.8577390000000001    0.0075650000000000 Mg
   0.1245080000000000    0.1245080000000000    0.6011140000000000 Mg
   0.8754920000000002    0.8754920000000003    0.3988860000000000 Mg
   0.4169099999999999    0.4169100000000001    0.6414840000000001 Si
   0.2320420000000000    0.2320420000000000    0.2622330000000000 Si
   0.7679580000000000    0.7679580000000001    0.7377670000000000 Si
   0.5830899999999999    0.5830900000000000    0.3585160000000000 Si
   0.5304720000000001    0.5304720000000002    0.8463610000000000 Si
   0.4695279999999999    0.4695280000000001    0.1536390000000000 Si
