Pr8 Co2
1.0
   0.0000000000000000    5.5582760000000002    5.5582760000000002
   5.5582760000000002    0.0000000000000000    5.5582760000000002
   5.5582760000000002    5.5582760000000002    0.0000000000000000
Pr Co
8 2
direct
   0.3841610000000000    0.3841610000000000    0.3841610000000000 Pr
   0.3841610000000000    0.3841609999999999    0.8475169999999999 Pr
   0.3841610000000000    0.8475169999999999    0.3841609999999999 Pr
   0.8658390000000000    0.8658389999999999    0.4024829999999999 Pr
   0.8658390000000000    0.8658390000000000    0.8658390000000000 Pr
   0.8475170000000000    0.3841610000000000    0.3841609999999999 Pr
   0.8658390000000000    0.4024830000000000    0.8658390000000000 Pr
   0.4024830000000000    0.8658390000000000    0.8658390000000000 Pr
   0.0000000000000000    0.0000000000000000    0.0000000000000000 Co
   0.2500000000000000    0.2500000000000000    0.2500000000000000 Co
