Zn3 Ir1
1.0
  -1.8633679999999999    1.8633679999999999    4.0781039999999997
   1.8633679999999999   -1.8633679999999999    4.0781039999999997
   1.8633679999999999    1.8633679999999999   -4.0781039999999997
Zn Ir
3 1
direct
   0.7500000000000000    0.2500000000000000    0.4999999999999999 Zn
   0.2499999999999999    0.7500000000000000    0.4999999999999999 Zn
   0.5000000000000000    0.5000000000000000    0.0000000000000000 Zn
   0.0000000000000000    0.0000000000000000    0.0000000000000000 Ir
