Ce4 Se8
1.0
   2.0930309999999999   -3.6252350000000000    0.0000000000000000
   2.0930309999999999    3.6252350000000000    0.0000000000000000
   0.0000000000000000    0.0000000000000000   25.6920119999999983
Ce Se
4 8
direct
   0.0000000000000000    0.0000000000000000    0.5000000000000000 Ce
   0.0000000000000000    0.0000000000000000    0.0000000000000000 Ce
   0.0000000000000000    0.0000000000000000    0.2500000000000000 Ce
   0.0000000000000000    0.0000000000000000    0.7499999999999999 Ce
   0.3333329999999999    0.6666670000000000    0.4408450000000000 Se
   0.6666670000000000    0.3333330000000000    0.5591550000000000 Se
   0.6666670000000000    0.3333330000000000    0.9408450000000000 Se
   0.3333329999999999    0.6666670000000000    0.0591550000000000 Se
   0.6666670000000000    0.3333330000000000    0.3142340000000000 Se
   0.3333329999999999    0.6666670000000000    0.6857660000000000 Se
   0.3333329999999999    0.6666670000000000    0.8142340000000000 Se
   0.6666670000000000    0.3333330000000000    0.1857660000000000 Se
