K4 O2
1.0
   2.1388250000000002    3.6958839999999999    0.0000000000000000
  -2.1388250000000002    3.6958839999999999    0.0000000000000000
   0.0000000000000000    2.5878350000000001    9.8356329999999996
K O
4 2
direct
   0.8843520000000001    0.8843520000000001    0.3303390000000000 K
   0.7059869999999999    0.7059869999999999    0.8887630000000001 K
   0.2940130000000000    0.2940130000000000    0.1112370000000000 K
   0.1156480000000000    0.1156480000000000    0.6696610000000000 K
   0.4090599999999999    0.4090599999999999    0.7843700000000001 O
   0.5909400000000000    0.5909400000000000    0.2156300000000000 O
