Mg12 Si10
1.0
   3.9781830000000000    0.0000000000000000    0.0000000000000000
  -0.0643480000000000    6.9352080000000003    0.0000000000000000
  -1.8825460000000001   -3.0951149999999998   15.4935060000000000
Mg Si
12 10
direct
   0.7701799999999999    0.3300810000000001    0.0557040000000000 Mg
   0.4890639999999999    0.8978030000000000    0.5019160000000000 Mg
   0.9152849999999999    0.6473360000000000    0.3568040000000000 Mg
   0.0655240000000000    0.1569990000000001    0.6498780000000000 Mg
   0.6476389999999997    0.2488880000000000    0.8240980000000001 Mg
   0.3357520000000000    0.5693820000000001    0.1880110000000000 Mg
   0.9536470000000000    0.1723190000000000    0.4258920000000000 Mg
   0.0243870000000000    0.6160140000000001    0.5759900000000001 Mg
   0.2286040000000000    0.5698660000000001    0.9744020000000001 Mg
   0.2884810000000000    0.9773570000000001    0.1139830000000000 Mg
   0.6818469999999999    0.7828180000000001    0.8824610000000002 Mg
   0.2100640000000000    0.0969420000000001    0.9434270000000001 Mg
   0.5211959999999999    0.2968470000000001    0.5535790000000002 Si
   0.4595350000000000    0.4965010000000001    0.4489030000000001 Si
   0.8522529999999998    0.2489050000000000    0.2158790000000000 Si
   0.1255990000000000    0.5310620000000000    0.7879300000000000 Si
   0.5799770000000000    0.8667760000000000    0.6811080000000002 Si
   0.3980239999999999    0.9288620000000001    0.3230060000000001 Si
   0.8505180000000000    0.8715750000000001    0.2217870000000000 Si
   0.1234630000000001    0.9063720000000001    0.7777040000000000 Si
   0.5838080000000000    0.5091600000000001    0.6950510000000001 Si
   0.3950340000000000    0.2854040000000000    0.3060960000000000 Si
