Pr12 Os4
1.0
   6.5926609999999997    0.0000000000000000    0.0000000000000000
   0.0000000000000000    7.5347710000000001    0.0000000000000000
   0.0000000000000000    0.0000000000000000    9.7616949999999996
Pr Os
12 4
direct
   0.3263579999999999    0.6739700000000000    0.0668490000000000 Pr
   0.1736420000000000    0.1739700000000000    0.4331510000000000 Pr
   0.6736420000000000    0.3260300000000000    0.5668490000000000 Pr
   0.8263580000000000    0.8260300000000000    0.9331510000000000 Pr
   0.6736420000000000    0.3260300000000000    0.9331510000000000 Pr
   0.8263580000000000    0.8260300000000000    0.5668490000000000 Pr
   0.3263579999999999    0.6739700000000000    0.4331510000000000 Pr
   0.1736420000000000    0.1739700000000000    0.0668490000000000 Pr
   0.8584640000000000    0.5409810000000000    0.2500000000000000 Pr
   0.6415359999999999    0.0409810000000000    0.2500000000000000 Pr
   0.1415360000000000    0.4590190000000000    0.7500000000000000 Pr
   0.3584639999999999    0.9590190000000000    0.7500000000000000 Pr
   0.0507700000000000    0.8859010000000000    0.2500000000000000 Os
   0.4492300000000000    0.3859010000000000    0.2500000000000000 Os
   0.9492299999999999    0.1140990000000000    0.7500000000000000 Os
   0.5507700000000000    0.6140990000000000    0.7500000000000000 Os
