Te8 Ir3
1.0
   4.5767590000000000   -4.6467939999999999    0.0000000000000000
   4.5767590000000000    4.6467939999999999    0.0000000000000000
  -0.1411420000000000    0.0000000000000000    6.5206980000000003
Te Ir
8 3
direct
   0.8681349999999999    0.1234899999999999    0.3700500000000000 Te
   0.3700499999999999    0.8681350000000000    0.1234900000000000 Te
   0.1234899999999999    0.3700500000000000    0.8681349999999999 Te
   0.6316109999999999    0.6316110000000000    0.6316109999999999 Te
   0.1318650000000000    0.8765100000000001    0.6299499999999999 Te
   0.6299499999999999    0.1318650000000000    0.8765099999999999 Te
   0.8765100000000000    0.6299499999999999    0.1318650000000000 Te
   0.3683890000000000    0.3683890000000000    0.3683890000000000 Te
   0.4999999999999999    0.5000000000000000    0.0000000000000000 Ir
  -0.0000000000000001    0.5000000000000000    0.4999999999999999 Ir
   0.4999999999999999   -0.0000000000000000    0.4999999999999999 Ir
