Cd14 I28
1.0
   2.1707320000000001   -3.7598180000000001    0.0000000000000000
   2.1707320000000001    3.7598180000000001    0.0000000000000000
   0.0000000000000000    0.0000000000000000  103.1534520000000015
Cd I
14 28
direct
   0.0000000000000000    0.0000000000000000    0.8035739999999999 Cd
   0.0000000000000000    0.0000000000000000    0.5178450000000000 Cd
   0.6666669999999999    0.3333330000000000    0.3035780000000000 Cd
   0.6666669999999999    0.3333330000000000    0.1607140000000000 Cd
   0.0000000000000000    0.0000000000000000    0.6607110000000000 Cd
   0.0000000000000000    0.0000000000000000    0.2321500000000000 Cd
   0.0000000000000000    0.0000000000000000    0.9464299999999999 Cd
   0.6666669999999999    0.3333330000000000    0.7321410000000000 Cd
   0.6666669999999999    0.3333330000000000    0.0178530000000000 Cd
   0.6666669999999999    0.3333330000000000    0.5892820000000000 Cd
   0.6666669999999999    0.3333330000000000    0.4464410000000000 Cd
   0.0000000000000000    0.0000000000000000    0.0892860000000000 Cd
   0.0000000000000000    0.0000000000000000    0.3749960000000000 Cd
   0.0000000000000000    0.0000000000000000    0.8750000000000000 Cd
   0.6666669999999999    0.3333330000000000    0.0725360000000000 I
   0.3333329999999999    0.6666670000000000    0.5345950000000000 I
   0.3333329999999999    0.6666670000000000    0.1774650000000000 I
   0.3333329999999999    0.6666670000000000    0.1060440000000000 I
   0.3333329999999999    0.6666670000000000    0.4631759999999999 I
   0.6666669999999999    0.3333330000000000    0.7868319999999999 I
   0.0000000000000000    0.0000000000000000    0.7153810000000000 I
   0.0000000000000000    0.0000000000000000    0.2868100000000000 I
   0.6666669999999999    0.3333330000000000    0.6439530000000000 I
   0.3333329999999999    0.6666670000000000    0.3203250000000000 I
   0.3333329999999999    0.6666670000000000    0.6060420000000000 I
   0.0000000000000000    0.0000000000000000    0.1439570000000000 I
   0.3333329999999999    0.6666670000000000    0.8203279999999998 I
   0.3333329999999999    0.6666670000000000    0.9631690000000001 I
   0.0000000000000000    0.0000000000000000    0.0011260000000000 I
   0.6666669999999999    0.3333330000000000    0.8582620000000000 I
   0.6666669999999999    0.3333330000000000    0.9296769999999999 I
   0.3333329999999999    0.6666670000000000    0.6774609999999999 I
   0.6666669999999999    0.3333330000000000    0.2154010000000000 I
   0.3333329999999999    0.6666670000000000    0.0346040000000000 I
   0.3333329999999999    0.6666670000000000    0.8917380000000000 I
   0.3333329999999999    0.6666670000000000    0.2489030000000000 I
   0.6666669999999999    0.3333330000000000    0.3582590000000000 I
   0.3333329999999999    0.6666670000000000    0.3917369999999999 I
   0.6666669999999999    0.3333330000000000    0.5010940000000000 I
   0.0000000000000000    0.0000000000000000    0.5725470000000000 I
   0.0000000000000000    0.0000000000000000    0.4296830000000000 I
   0.3333329999999999    0.6666670000000000    0.7488939999999999 I
