Zr14 Pt20
1.0
   4.8541160000000003   -6.6338720000000002    0.0000000000000000
   4.8541160000000003    6.6338720000000002    0.0000000000000000
   0.0000000000000000    0.0000000000000000    9.7412109999999998
Zr Pt
14 20
direct
   0.6901570000000000    0.3098430000000000    0.0000000000000000 Zr
   0.3098430000000000    0.6901570000000000    0.0000000000000000 Zr
   0.8098430000000000    0.1901570000000000    0.5000000000000000 Zr
   0.1901570000000000    0.8098430000000000    0.5000000000000000 Zr
   0.0000000000000000    0.0000000000000000    0.0000000000000000 Zr
   0.5000000000000000    0.5000000000000000    0.5000000000000000 Zr
   0.0033420000000000    0.5033420000000000    0.2500000000000000 Zr
   0.9966580000000000    0.4966580000000000    0.7500000000000000 Zr
   0.4966580000000000    0.9966580000000000    0.7500000000000000 Zr
   0.5033420000000000    0.0033420000000000    0.2500000000000000 Zr
   0.3177540000000000    0.3177540000000000    0.1833380000000000 Zr
   0.6822460000000000    0.6822460000000000    0.8166620000000000 Zr
   0.1822460000000000    0.1822460000000000    0.6833380000000001 Zr
   0.8177540000000000    0.8177540000000000    0.3166620000000000 Zr
   0.8537730000000000    0.1463210000000000    0.2094280000000000 Pt
   0.1462270000000000    0.8536790000000001    0.7905720000000002 Pt
   0.6462270000000000    0.3536790000000000    0.7094279999999999 Pt
   0.6463210000000000    0.3537730000000000    0.2905720000000000 Pt
   0.3537730000000000    0.6463210000000000    0.2905720000000000 Pt
   0.3536790000000000    0.6462270000000000    0.7094279999999999 Pt
   0.8536790000000001    0.1462270000000000    0.7905720000000002 Pt
   0.1463210000000000    0.8537730000000000    0.2094280000000000 Pt
   0.9367080000000000    0.6446190000000002    0.9999410000000001 Pt
   0.0632920000000000    0.3553810000000000    0.0000590000000000 Pt
   0.5632920000000001    0.8553809999999999    0.4999410000000001 Pt
   0.1446190000000000    0.4367080000000000    0.5000590000000000 Pt
   0.4367080000000000    0.1446190000000000    0.5000590000000000 Pt
   0.8553809999999999    0.5632920000000001    0.4999410000000001 Pt
   0.3553810000000000    0.0632920000000000    0.0000590000000000 Pt
   0.6446190000000002    0.9367080000000000    0.9999410000000001 Pt
   0.1081060000000000    0.1081060000000000    0.3935600000000000 Pt
   0.8918940000000000    0.8918940000000000    0.6064400000000000 Pt
   0.3918940000000001    0.3918940000000001    0.8935600000000000 Pt
   0.6081060000000000    0.6081060000000000    0.1064400000000000 Pt
