Mg1 Ga5
1.0
   2.5532210000000002   -4.4223080000000001    0.0000000000000000
   2.5532210000000002    4.4223080000000001    0.0000000000000000
   0.0000000000000000    0.0000000000000000    5.1010249999999999
Mg Ga
1 5
direct
   0.0000000000000000    0.0000000000000000    0.5000000000000000 Mg
   0.0000000000000000    0.6634710000000000    0.0000000000000000 Ga
   0.6634710000000000    0.0000000000000000    0.0000000000000000 Ga
   0.3365290000000000    0.3365290000000000    0.0000000000000000 Ga
   0.6666670000000000    0.3333330000000000    0.5000000000000000 Ga
   0.3333330000000000    0.6666670000000000    0.5000000000000000 Ga
