Mg18 Si10
1.0
  10.5904600000000002   -0.1866150000000000   -0.4798420000000000
   3.0160580000000001    6.2397970000000003   -4.1486000000000001
  -0.0622580000000000   -0.0311740000000000    8.1691040000000008
Mg Si
18 10
direct
   0.3855970000000001    0.0083750000000000    0.6462280000000001 Mg
   0.5548709999999999    0.8645980000000000    0.2413440000000000 Mg
   0.3794390000000001    0.6376589999999999    0.9420650000000000 Mg
   0.5503510000000001    0.2452090000000000    0.9762780000000000 Mg
   0.3739330000000000    0.3319400000000000    0.3433980000000000 Mg
   0.5924030000000001    0.4781320000000000    0.4899500000000000 Mg
   0.8731850000000000    0.0233750000000000    0.8179610000000000 Mg
   0.0405650000000000    0.2130039999999999    0.7094230000000000 Mg
   0.8812320000000001    0.6203329999999999    0.1187340000000000 Mg
   0.0314220000000000    0.8580079999999999    0.0629649999999999 Mg
   0.8845790000000003    0.6168499999999999    0.7540900000000000 Mg
   0.0399860000000000    0.5666079999999999    0.4358680000000000 Mg
   0.7088270000000001    0.8006739999999999    0.5399399999999999 Mg
   0.2071860000000000    0.0842720000000000    0.3282389999999999 Mg
   0.6999460000000001    0.4334169999999999    0.8336829999999998 Mg
   0.2077820000000000    0.4177600000000000    0.0305910000000000 Mg
   0.8213200000000001    0.0515250000000000    0.4461769999999999 Mg
   0.2051299999999999    0.8068520000000000    0.7098700000000000 Mg
   0.7286770000000000    0.9880069999999997    0.0998569999999999 Si
   0.5863230000000000    0.8215549999999999    0.8647049999999998 Si
   0.3359940000000000    0.0287130000000000    0.9995500000000000 Si
   0.0182140000000000    0.2293910000000000    0.0812720000000000 Si
   0.7418900000000002    0.4280620000000000    0.1732310000000000 Si
   0.2133630000000001    0.4364589999999999    0.6885970000000000 Si
   0.8873930000000002    0.3155769999999999    0.3822120000000000 Si
   0.1312280000000000    0.8100610000000000    0.3717960000000000 Si
   0.3955380000000001    0.6523639999999999    0.2996590000000000 Si
   0.5238460000000000    0.2312490000000000    0.6123170000000001 Si
