Ta2 Se4
1.0
   1.7371110000000001   -3.0087640000000002    0.0000000000000000
   1.7371110000000001    3.0087640000000002    0.0000000000000000
   0.0000000000000000    0.0000000000000000   13.7031799999999997
Ta Se
2 4
direct
   0.0000000000000000    0.0000000000000000    0.2500000000000000 Ta
   0.0000000000000000    0.0000000000000000    0.7499999999999999 Ta
   0.3333330000000000    0.6666670000000000    0.3728159999999999 Se
   0.6666670000000000    0.3333330000000000    0.6271839999999999 Se
   0.6666670000000000    0.3333330000000000    0.8728160000000000 Se
   0.3333330000000000    0.6666670000000000    0.1271840000000000 Se
