V2 O4
1.0
   0.0000000000000000    0.0000000000000000    3.0381410000000000
   4.5153100000000004    0.0000000000000000    0.0000000000000000
   0.0000000000000000    4.5153100000000004    0.0000000000000000
V O
2 4
direct
   0.5000000000000000    0.5000000000000000    0.5000000000000000 V
   0.0000000000000000    0.0000000000000000    0.0000000000000000 V
   0.5000000000000000    0.7992359999999999    0.2007640000000000 O
   0.5000000000000000    0.2007640000000000    0.7992359999999999 O
   0.0000000000000000    0.7007640000000001    0.7007640000000001 O
   0.0000000000000000    0.2992360000000000    0.2992360000000000 O
