V4 O8
1.0
   7.2669800000000002    0.0000000000000000    0.0000000000000000
   0.0000000000000000    4.6202079999999999    0.0000000000000000
   0.0000000000000000    1.7689429999999999    8.9184459999999994
V O
4 8
direct
   0.0000000000000000    0.6555780000000001    0.2931540000000000 V
   0.0000000000000000    0.3444220000000000    0.7068460000000000 V
   0.1873320000000000   -0.0000000000000000    0.5000000000000000 V
   0.8126679999999999   -0.0000000000000000    0.5000000000000000 V
   0.0000000000000000    0.2470320000000000    0.3836070000000000 O
   0.0000000000000000    0.7529680000000000    0.6163930000000000 O
   0.7738149999999999    0.2366520000000000    0.6416840000000000 O
   0.7738149999999999    0.7633480000000000    0.3583160000000001 O
   0.2261850000000000    0.7633480000000000    0.3583160000000001 O
   0.2261850000000000    0.2366520000000000    0.6416840000000000 O
   0.0000000000000000    0.3172150000000000    0.8865370000000000 O
   0.0000000000000000    0.6827850000000000    0.1134630000000000 O
