Li5 Sn2
1.0
   6.7375340000000001   -2.3578640000000002    0.0000000000000000
   6.7375340000000001    2.3578640000000002    0.0000000000000000
   5.9123780000000004    0.0000000000000000    3.9997099999999999
Li Sn
5 2
direct
   0.5000000000000001    0.5000000000000000    0.4999999999999999 Li
   0.3535610000000000    0.3535610000000000    0.3535610000000000 Li
   0.6464390000000000    0.6464390000000000    0.6464390000000000 Li
   0.2136540000000000    0.2136540000000000    0.2136540000000000 Li
   0.7863460000000001    0.7863460000000000    0.7863459999999999 Li
   0.0736030000000000    0.0736030000000000    0.0736030000000000 Sn
   0.9263970000000001    0.9263970000000000    0.9263969999999999 Sn
