Ca12 Au4
1.0
   6.8169440000000003    0.0000000000000000    0.0000000000000000
   0.0000000000000000    7.8618220000000001    0.0000000000000000
   0.0000000000000000    0.0000000000000000    9.9169350000000005
Ca Au
12 4
direct
   0.6627230000000000    0.1749330000000000    0.4362830000000000 Ca
   0.1627230000000000    0.3250670000000000    0.5637170000000000 Ca
   0.8372770000000000    0.6749330000000000    0.0637170000000000 Ca
   0.3372770000000000    0.8250670000000001    0.9362829999999999 Ca
   0.1435270000000000    0.0364970000000000    0.2500000000000000 Ca
   0.6435270000000001    0.4635030000000000    0.7499999999999999 Ca
   0.3564730000000000    0.5364970000000000    0.2500000000000000 Ca
   0.8564730000000002    0.9635030000000000    0.7499999999999999 Ca
   0.6627230000000000    0.1749330000000000    0.0637170000000000 Ca
   0.1627230000000000    0.3250670000000000    0.9362829999999999 Ca
   0.8372770000000000    0.6749330000000000    0.4362830000000000 Ca
   0.3372770000000000    0.8250670000000001    0.5637170000000000 Ca
   0.0499010000000000    0.6219960000000000    0.7499999999999999 Au
   0.5499010000000000    0.8780040000000000    0.2500000000000000 Au
   0.4500990000000000    0.1219960000000000    0.7499999999999999 Au
   0.9500990000000001    0.3780040000000000    0.2500000000000000 Au
