Tb10 Ga6
1.0
  -3.8503440000000002    3.8503440000000002    7.0755759999999999
   3.8503440000000002   -3.8503440000000002    7.0755759999999999
   3.8503440000000002    3.8503440000000002   -7.0755759999999999
Tb Ga
10 6
direct
   0.5000000000000000    0.5000000000000000    0.0000000000000000 Tb
   0.0000000000000000    0.0000000000000000    0.0000000000000000 Tb
   0.5226870000000001    0.0226870000000000    0.8403070000000000 Tb
   0.1823800000000000    0.6823800000000000    0.1596930000000000 Tb
   0.0226870000000000    0.1823800000000000    0.5000000000000000 Tb
   0.6823800000000000    0.5226870000000000    0.5000000000000000 Tb
   0.4773130000000001    0.9773130000000001    0.1596930000000000 Tb
   0.8176200000000000    0.3176200000000000    0.8403070000000001 Tb
   0.9773130000000001    0.8176200000000001    0.5000000000000000 Tb
   0.3176200000000000    0.4773130000000000    0.5000000000000000 Tb
   0.2500000000000000    0.2500000000000000    0.0000000000000000 Ga
   0.7500000000000000    0.7500000000000000    0.0000000000000000 Ga
   0.8781299999999999    0.3781299999999999    0.2562590000000001 Ga
   0.1218700000000001    0.6218700000000000    0.7437410000000001 Ga
   0.3781300000000000    0.1218700000000000    0.5000000000000000 Ga
   0.6218700000000000    0.8781300000000001    0.5000000000000000 Ga
