Eu14 Au6
1.0
   5.4147939999999997   -9.3786980000000000    0.0000000000000000
   5.4147939999999997    9.3786980000000000    0.0000000000000000
   0.0000000000000000    0.0000000000000000    6.8109549999999999
Eu Au
14 6
direct
   0.6666670000000000    0.3333330000000000    0.5384970000000000 Eu
   0.3333330000000000    0.6666670000000000    0.0384970000000000 Eu
   0.8746190000000000    0.7492369999999999    0.7483780000000000 Eu
   0.2507630000000000    0.1253810000000000    0.7483780000000000 Eu
   0.8746190000000000    0.1253810000000000    0.7483780000000000 Eu
   0.1253810000000000    0.2507630000000000    0.2483780000000000 Eu
   0.7492369999999999    0.8746190000000000    0.2483780000000000 Eu
   0.1253810000000000    0.8746190000000000    0.2483780000000000 Eu
   0.4601330000000000    0.9202650000000000    0.5442120000000000 Eu
   0.0797350000000000    0.5398670000000000    0.5442120000000000 Eu
   0.4601330000000000    0.5398670000000000    0.5442120000000000 Eu
   0.5398670000000000    0.0797350000000000    0.0442120000000000 Eu
   0.9202650000000000    0.4601330000000000    0.0442120000000000 Eu
   0.5398670000000000    0.4601330000000000    0.0442120000000000 Eu
   0.1888940000000000    0.3777880000000000    0.8087279999999999 Au
   0.6222120000000000    0.8111059999999999    0.8087279999999999 Au
   0.1888939999999999    0.8111059999999999    0.8087279999999999 Au
   0.8111059999999999    0.6222120000000000    0.3087280000000000 Au
   0.3777880000000000    0.1888940000000000    0.3087280000000000 Au
   0.8111059999999999    0.1888939999999999    0.3087280000000000 Au
