Al12 W3
1.0
   8.9196500000000007    2.6398709999999999    0.0000000000000000
  -8.9196500000000007    2.6398709999999999    0.0000000000000000
   0.0000000000000000    0.9109640000000000    5.1647189999999998
Al W
12 3
direct
   0.1452870000000000    0.1452870000000000    0.4877960000000000 Al
   0.5031250000000000    0.5031250000000000    0.8495770000000000 Al
   0.5825450000000001    0.7363090000000001    0.3144360000000000 Al
   0.7363090000000001    0.5825450000000001    0.3144360000000000 Al
   0.6951020000000000    0.9316380000000000    0.7863249999999999 Al
   0.9316380000000000    0.6951020000000000    0.7863249999999999 Al
   0.0584860000000000    0.3054860000000000    0.1920610000000000 Al
   0.3054860000000000    0.0584860000000000    0.1920610000000000 Al
   0.4505930000000000    0.9206520000000000    0.4163530000000000 Al
   0.9206520000000000    0.4505930000000000    0.4163530000000000 Al
   0.7730349999999999    0.2728040000000000    0.9262659999999999 Al
   0.2728040000000000    0.7730349999999999    0.9262659999999999 Al
   0.9898969999999999    0.9898969999999999    0.0076860000000000 W
   0.1920130000000000    0.4660279999999999    0.6690290000000000 W
   0.4660279999999999    0.1920130000000000    0.6690290000000000 W
