Sr4 N3
1.0
   4.0087659999999996    0.0000000000000000    0.0000000000000000
  -0.0643840000000000    6.4020910000000004    0.0000000000000000
  -0.3613540000000000   -2.7964910000000001    5.9652599999999998
Sr N
4 3
direct
   0.0388970000000000    0.0256880000000000    0.9055820000000001 Sr
   0.5242070000000000    0.4374310000000001    0.8362180000000001 Sr
   0.4840709999999999    0.9013040000000001    0.4089640000000000 Sr
   0.9770090000000001    0.4689760000000001    0.4371740000000001 Sr
   0.0028330000000000    0.1639040000000000    0.5932170000000000 N
   0.4488400000000001    0.4101450000000000    0.1799110000000000 N
   0.5024429999999999    0.7585520000000000    0.7219340000000001 N
