Bi4 O8
1.0
  -3.5590839999999999    3.6522809999999999    3.6717149999999998
   3.5590839999999999   -3.6522809999999999    3.6717149999999998
   3.5590839999999999    3.6522809999999999   -3.6717149999999998
Bi O
4 8
direct
   0.5065070000000000    0.2500000000000001    0.2565070000000000 Bi
   0.4934930000000001    0.7500000000000000    0.7434930000000000 Bi
  -0.0000000000000000   -0.0000000000000000    0.5000000000000000 Bi
   0.0000000000000000    0.5000000000000000   -0.0000000000000000 Bi
   0.3068170000000001    0.0071570000000000    0.8139740000000001 O
   0.1815590000000000    0.4401850000000000    0.7413750000000001 O
   0.3068170000000001    0.4928430000000000    0.2996600000000000 O
   0.8011900000000000    0.0598150000000000    0.7413750000000000 O
   0.1988100000000000    0.9401850000000000    0.2586250000000000 O
   0.8184410000000001    0.5598150000000001    0.2586250000000000 O
   0.6931830000000000    0.5071570000000000    0.7003400000000000 O
   0.6931830000000001    0.9928430000000001    0.1860260000000000 O
