Mn4 O8
1.0
   5.0468840000000004    0.0003300000000000    2.9144720000000000
   1.6702269999999999    4.7539670000000003    2.9163670000000002
   0.0080620000000000   -0.0113500000000000    5.8308380000000000
Mn O
4 8
direct
   0.5000009999999999    0.5000000000000001    0.4999990000000000 Mn
  -0.0000000000000000    0.5000010000000001    0.4999989999999999 Mn
   0.4999999999999999    0.5000010000000001   -0.0000000000000000 Mn
   0.4999990000000000   -0.0000000000000000    0.5000010000000000 Mn
   0.2944759999999998    0.7346180000000000    0.7358779999999999 O
   0.7350270000000000    0.7358790000000001    0.7346169999999999 O
   0.7346180000000000    0.2944780000000001    0.7350269999999999 O
   0.7358779999999999    0.7350270000000001    0.2944779999999999 O
   0.2649719999999999    0.2641230000000001    0.2653820000000000 O
   0.7055229999999999    0.2653810000000000    0.2641220000000000 O
   0.2641209999999999    0.2649720000000000    0.7055230000000000 O
   0.2653809999999999    0.7055230000000001    0.2649740000000000 O
