Hf8 O16
1.0
   5.0856830000000004    0.0000000000000000    0.0000000000000000
   0.0000000000000000    5.2483550000000001    0.0000000000000000
   0.0000000000000000    0.0000000000000000   10.0588080000000009
Hf O
8 16
direct
   0.7540460000000000    0.4642770000000000    0.1155680000000000 Hf
   0.2540460000000000    0.5357229999999999    0.3844320000000000 Hf
   0.7459540000000000    0.9642770000000001    0.8844320000000000 Hf
   0.2459540000000000    0.0357230000000000    0.6155680000000000 Hf
   0.2459540000000000    0.5357229999999999    0.8844320000000000 Hf
   0.7459540000000000    0.4642770000000000    0.6155680000000000 Hf
   0.2540460000000000    0.0357230000000000    0.1155680000000000 Hf
   0.7540460000000000    0.9642770000000001    0.3844320000000000 Hf
   0.9975950000000001    0.2614270000000000    0.4774870000000001 O
   0.4975950000000000    0.7385730000000000    0.0225130000000000 O
   0.5024050000000000    0.7614270000000000    0.5225130000000000 O
   0.0024050000000000    0.2385730000000000    0.9774870000000000 O
   0.0024050000000000    0.7385730000000000    0.5225130000000000 O
   0.5024050000000000    0.2614270000000000    0.9774870000000000 O
   0.4975950000000000    0.2385730000000000    0.4774870000000001 O
   0.9975950000000001    0.7614270000000000    0.0225130000000000 O
   0.6243140000000000    0.6274410000000000    0.2890510000000000 O
   0.1243140000000000    0.3725590000000000    0.2109490000000000 O
   0.8756860000000000    0.1274410000000000    0.7109490000000001 O
   0.3756860000000000    0.8725590000000001    0.7890509999999999 O
   0.3756860000000000    0.3725590000000000    0.7109490000000001 O
   0.8756860000000000    0.6274410000000000    0.7890509999999999 O
   0.1243140000000000    0.8725590000000001    0.2890510000000000 O
   0.6243140000000000    0.1274410000000000    0.2109490000000000 O
