Eu4 Cu4
1.0
   4.4091849999999999    0.0000000000000000    0.0000000000000000
   0.0000000000000000    5.9312920000000000    0.0000000000000000
   0.0000000000000000    0.0000000000000000    7.7643180000000003
Eu Cu
4 4
direct
   0.2500000000000000    0.3695390000000000    0.6812560000000000 Eu
   0.2500000000000000    0.1304610000000000    0.1812560000000000 Eu
   0.7500000000000000    0.6304609999999999    0.3187440000000000 Eu
   0.7500000000000000    0.8695389999999998    0.8187440000000000 Eu
   0.2500000000000000    0.8957339999999999    0.5296980000000000 Cu
   0.2500000000000000    0.6042659999999999    0.0296980000000000 Cu
   0.7500000000000000    0.1042660000000000    0.4703020000000000 Cu
   0.7500000000000000    0.3957340000000000    0.9703020000000000 Cu
