Yb2 Fe4
1.0
   0.0000000000000000    3.5648100000000000    3.5648100000000000
   3.5648100000000000    0.0000000000000000    3.5648100000000000
   3.5648100000000000    3.5648100000000000    0.0000000000000000
Yb Fe
2 4
direct
   0.7500000000000000    0.7500000000000001    0.7500000000000001 Yb
   0.5000000000000001    0.5000000000000000    0.4999999999999999 Yb
   0.1250000000000000    0.6250000000000001    0.1250000000000001 Fe
   0.1250000000000000    0.1250000000000000    0.6250000000000001 Fe
   0.6250000000000001    0.1250000000000000    0.1250000000000000 Fe
   0.1250000000000000    0.1250000000000000    0.1250000000000000 Fe
