Pt3 O4
1.0
  -2.7412070000000002    2.7412070000000002    2.7412070000000002
   2.7412070000000002   -2.7412070000000002    2.7412070000000002
   2.7412070000000002    2.7412070000000002   -2.7412070000000002
Pt O
3 4
direct
   0.5000000000000000    0.0000000000000000    0.5000000000000000 Pt
   0.5000000000000000    0.5000000000000000    0.0000000000000000 Pt
   0.0000000000000000    0.5000000000000000    0.5000000000000000 Pt
   0.0000000000000000    0.5000000000000000   -0.0000000000000000 O
   0.0000000000000000   -0.0000000000000000    0.5000000000000000 O
   0.5000000000000001    0.5000000000000000    0.5000000000000000 O
   0.5000000000000000    0.0000000000000000    0.0000000000000000 O
