Zr1 Cd3
1.0
   4.4320779999999997    0.0000000000000000    0.0000000000000000
   0.0000000000000000    4.4320779999999997    0.0000000000000000
   0.0000000000000000    0.0000000000000000    4.4320779999999997
Zr Cd
1 3
direct
   0.0000000000000000    0.0000000000000000    0.0000000000000000 Zr
   0.5000000000000000    0.0000000000000000    0.5000000000000000 Cd
   0.5000000000000000    0.5000000000000000    0.0000000000000000 Cd
   0.0000000000000000    0.5000000000000000    0.5000000000000000 Cd
