Ge2 S4
1.0
  -2.8927260000000001    2.8927260000000001    4.5504429999999996
   2.8927260000000001   -2.8927260000000001    4.5504429999999996
   2.8927260000000001    2.8927260000000001   -4.5504429999999996
Ge S
2 4
direct
   0.7500000000000001    0.2500000000000000    0.5000000000000000 Ge
   0.0000000000000000    0.0000000000000000    0.0000000000000000 Ge
   0.8749999999999999    0.9011689999999999    0.5261690000000000 S
   0.0988310000000000    0.6249999999999999    0.9738309999999999 S
   0.3750000000000001    0.3488310000000000    0.4738310000000001 S
   0.6511690000000000    0.1250000000000000    0.0261690000000000 S
