Al30 C30
1.0
  29.9697710000000015    0.0000000000000000    0.0000000000000000
   0.0000000000000000    8.0664300000000004    0.0000000000000000
   0.0000000000000000    0.0514640000000000    8.1064989999999995
Al C
30 30
direct
   0.3025479999999999    0.4999999999999999    0.5000000000000000 Al
   0.3040880000000000    0.1690930000000000    0.4973850000000001 Al
   0.3040880000000000    0.8309070000000000    0.5026150000000001 Al
   0.3030360000000000    0.5000000000000000    0.0000000000000000 Al
   0.3035129999999999    0.1658230000000000    0.9977640000000001 Al
   0.3035129999999999    0.8341769999999999    0.0022360000000000 Al
   0.3469160000000000    0.3327160000000000    0.7455380000000000 Al
   0.3475770000000000    0.9995549999999997    0.7483109999999999 Al
   0.3512510000000000    0.6633150000000000    0.7480010000000001 Al
   0.3512510000000000    0.3366850000000001    0.2519990000000000 Al
   0.3475770000000000    0.0004450000000000    0.2516890000000000 Al
   0.3469160000000000    0.6672840000000000    0.2544620000000000 Al
   0.3991720000000000    0.4999999999999999    0.5000000000000000 Al
   0.4006620000000000    0.1692400000000000    0.4985060000000001 Al
   0.4006620000000000    0.8307600000000001    0.5014940000000000 Al
   0.3969210000000000    0.5000000000000000    0.0000000000000000 Al
   0.3946479999999999    0.1681430000000000    0.0004320000000000 Al
   0.3946479999999999    0.8318570000000001    0.9995680000000000 Al
   0.4416470000000000    0.3425440000000000    0.7654880000000001 Al
   0.4417590000000000    0.9972040000000000    0.7586360000000000 Al
   0.4585630000000000    0.6737590000000000    0.7361740000000000 Al
   0.4585630000000000    0.3262410000000001    0.2638260000000000 Al
   0.4417590000000000    0.0027960000000000    0.2413640000000000 Al
   0.4416470000000000    0.6574560000000000    0.2345120000000000 Al
   0.4996220000000000    0.4999999999999999    0.5000000000000000 Al
   0.5000370000000000    0.1757710000000000    0.5753500000000000 Al
   0.5000370000000000    0.8242290000000001    0.4246500000000000 Al
   0.5076229999999999    0.5000000000000000    0.0000000000000000 Al
   0.4917579999999999    0.1673530000000000    0.0009670000000000 Al
   0.4917579999999999    0.8326470000000001    0.9990329999999999 Al
   0.5560240000000000    0.0311450000000000    0.5883460000000000 C
   0.5569299999999999    0.4314770000000000    0.7999650000000000 C
   0.5606479999999999    0.8285240000000001    0.9870220000000000 C
   0.5604039999999999    0.2275820000000000    0.1819260000000000 C
   0.5545650000000000    0.6270820000000000    0.3794980000000000 C
   0.5545650000000000    0.3729180000000000    0.6205020000000001 C
   0.5604039999999999    0.7724180000000000    0.8180740000000000 C
   0.5606479999999999    0.1714760000000000    0.0129780000000000 C
   0.5569299999999999    0.5685230000000000    0.2000350000000000 C
   0.5560240000000000    0.9688550000000001    0.4116540000000000 C
   0.5815759999999999    0.4999999999999999    0.5000000000000000 C
   0.5815000000000000    0.9006950000000000    0.6999230000000001 C
   0.5851769999999999    0.3004350000000001    0.9005540000000000 C
   0.5851769999999999    0.6995650000000000    0.0994460000000000 C
   0.5815000000000000    0.0993050000000000    0.3000770000000000 C
   0.5829229999999999    0.2016520000000001    0.6018230000000000 C
   0.5838989999999999    0.6006260000000001    0.8012820000000000 C
   0.5851850000000000    0.0000000000000000    0.0000000000000000 C
   0.5838989999999999    0.3993740000000001    0.1987180000000000 C
   0.5829229999999999    0.7983480000000001    0.3981770000000001 C
   0.6017139999999999    0.6200639999999999    0.6259500000000000 C
   0.6036379999999999    0.0219220000000000    0.8244970000000000 C
   0.6059249999999999    0.4202219999999999    0.0269410000000000 C
   0.6038609999999999    0.8182750000000000    0.2293200000000000 C
   0.6014940000000000    0.2207850000000000    0.4285400000000000 C
   0.6014940000000000    0.7792150000000001    0.5714600000000000 C
   0.6038609999999999    0.1817250000000000    0.7706800000000000 C
   0.6059249999999999    0.5797780000000000    0.9730590000000000 C
   0.6036379999999999    0.9780780000000000    0.1755030000000000 C
   0.6017139999999999    0.3799360000000001    0.3740500000000000 C
