Ho2 Ge6
1.0
   2.0145840000000002  -10.4622399999999995    0.0000000000000000
   2.0145840000000002   10.4622399999999995    0.0000000000000000
   0.0000000000000000    0.0000000000000000    3.9403310000000000
Ho Ge
2 6
direct
   0.0826560000000000    0.9173439999999999    0.2500000000000000 Ho
   0.9173439999999999    0.0826560000000000    0.7500000000000000 Ho
   0.8089660000000000    0.1910340000000000    0.2500000000000000 Ge
   0.1910340000000001    0.8089659999999999    0.7500000000000000 Ge
   0.6893950000000000    0.3106050000000000    0.2500000000000000 Ge
   0.3106050000000000    0.6893949999999999    0.7500000000000000 Ge
   0.4603630000000000    0.5396369999999999    0.2500000000000000 Ge
   0.5396370000000000    0.4603629999999999    0.7500000000000000 Ge
