La12 Ir4
1.0
   6.6667379999999996    0.0000000000000000    0.0000000000000000
   0.0000000000000000    7.4517100000000003    0.0000000000000000
   0.0000000000000000    0.0000000000000000   10.0704250000000002
La Ir
12 4
direct
   0.3296750000000000    0.6740159999999998    0.0671130000000000 La
   0.1703250000000000    0.1740160000000000    0.4328870000000000 La
   0.6703249999999999    0.3259840000000000    0.5671129999999999 La
   0.8296750000000001    0.8259840000000001    0.9328869999999999 La
   0.6703249999999999    0.3259840000000000    0.9328869999999999 La
   0.8296750000000001    0.8259840000000001    0.5671129999999999 La
   0.3296750000000000    0.6740159999999998    0.4328870000000000 La
   0.1703250000000000    0.1740160000000000    0.0671130000000000 La
   0.8588920000000000    0.5380920000000000    0.2500000000000000 La
   0.6411080000000000    0.0380920000000000    0.2500000000000000 La
   0.1411080000000000    0.4619079999999999    0.7500000000000000 La
   0.3588920000000000    0.9619079999999999    0.7500000000000000 La
   0.0634680000000000    0.8809369999999999    0.2500000000000000 Ir
   0.4365320000000000    0.3809370000000000    0.2500000000000000 Ir
   0.9365320000000000    0.1190630000000000    0.7500000000000000 Ir
   0.5634680000000000    0.6190630000000000    0.7500000000000000 Ir
