Li1 Ag3
1.0
  -2.0495410000000001    2.0495410000000001    4.1356159999999997
   2.0495410000000001   -2.0495410000000001    4.1356159999999997
   2.0495410000000001    2.0495410000000001   -4.1356159999999997
Li Ag
1 3
direct
   0.0000000000000000    0.0000000000000000    0.0000000000000000 Li
   0.7500000000000001    0.2499999999999999    0.5000000000000000 Ag
   0.2499999999999999    0.7500000000000001    0.5000000000000001 Ag
   0.5000000000000000    0.5000000000000000    0.0000000000000000 Ag
