Sr4 Mg2
1.0
   2.1286429999999998   -3.6869179999999999    0.0000000000000000
   2.1286429999999998    3.6869179999999999    0.0000000000000000
   0.0000000000000000    0.0000000000000000   17.3758289999999995
Sr Mg
4 2
direct
   0.0000000000000000    0.0000000000000000    0.0000000000000000 Sr
   0.3333330000000000    0.6666670000000000    0.8000799999999999 Sr
   0.3333330000000000    0.6666670000000000    0.4999999999999999 Sr
   0.3333330000000000    0.6666670000000000    0.1999200000000000 Sr
   0.0000000000000000    0.0000000000000000    0.6495099999999999 Mg
   0.0000000000000000    0.0000000000000000    0.3504900000000000 Mg
