Zr2 N4
1.0
   3.7926590000000000    0.0000000000000000    0.0000000000000000
   0.0000000000000000    4.1710620000000000    0.0000000000000000
   0.0000000000000000    0.0000000000000000    4.3700830000000002
Zr N
2 4
direct
   0.5000000000000000    0.2496360000000000    0.0000000000000000 Zr
   0.0000000000000000    0.7503640000000000    0.5000000000000000 Zr
   0.5000000000000000    0.4997160000000000    0.5000000000000000 N
   0.0000000000000000    0.5002840000000000    0.0000000000000000 N
   0.5000000000000000    0.1467590000000000    0.5000000000000000 N
   0.0000000000000000    0.8532410000000000    0.0000000000000000 N
