Ho4 Pt4
1.0
   4.5270229999999998    0.0000000000000000    0.0000000000000000
   0.0000000000000000    5.5654630000000003    0.0000000000000000
   0.0000000000000000    0.0000000000000000    6.9873050000000001
Ho Pt
4 4
direct
   0.2500000000000000    0.3631470000000000    0.6808700000000000 Ho
   0.2500000000000000    0.1368530000000000    0.1808700000000000 Ho
   0.7500000000000000    0.6368530000000000    0.3191300000000000 Ho
   0.7500000000000000    0.8631470000000000    0.8191300000000000 Ho
   0.2500000000000000    0.8478570000000000    0.5437870000000000 Pt
   0.2500000000000000    0.6521430000000000    0.0437870000000000 Pt
   0.7500000000000000    0.1521430000000000    0.4562129999999999 Pt
   0.7500000000000000    0.3478570000000000    0.9562130000000000 Pt
