Mg8 Si4
1.0
   5.7569660000000002    0.0000000000000000    0.0000000000000000
   0.0000000000000000    6.1869470000000000    0.0000000000000000
   0.0000000000000000    1.9751339999999999    6.9378019999999996
Mg Si
8 4
direct
   0.8828679999999999    0.3895980000000001    0.0528010000000000 Mg
   0.3003450000000000    0.3176410000000001    0.3744549999999999 Mg
   0.3018850000000000    0.7582480000000000    0.4975210000000000 Mg
   0.4070440000000000    0.0532040000000000    0.0884370000000000 Mg
   0.8018849999999998    0.2417520000000000    0.5024789999999999 Mg
   0.9070440000000000    0.9467960000000002    0.9115630000000000 Mg
   0.3828679999999999    0.6104019999999999    0.9471989999999999 Mg
   0.8003449999999999    0.6823590000000000    0.6255450000000000 Mg
   0.1601770000000000    0.3434590000000000    0.7354099999999999 Si
   0.6601769999999999    0.6565410000000002    0.2645899999999999 Si
   0.9453260000000000    0.9663940000000001    0.2801529999999999 Si
   0.4453260000000000    0.0336060000000000    0.7198469999999999 Si
