Mn4 F10
1.0
   2.6539850000000000    5.4786640000000002    0.0000000000000000
  -2.6539850000000000    5.4786640000000002    0.0000000000000000
   0.0000000000000000    3.0534610000000000    7.3718779999999997
Mn F
4 10
direct
   0.4036780000000001    0.3604830000000000    0.7038780000000000 Mn
   0.3604830000000001    0.4036780000000000    0.2038780000000000 Mn
   0.6395170000000000    0.5963220000000000    0.7961220000000000 Mn
   0.5963219999999999    0.6395169999999999    0.2961220000000000 Mn
   0.5639680000000000    0.2914110000000000    0.4299010000000000 F
   0.4529760000000001    0.9906560000000001    0.8114890000000000 F
   0.9906560000000001    0.4529760000000000    0.3114890000000000 F
   0.2914110000000000    0.5639680000000000    0.9299010000000000 F
   0.7762500000000000    0.2237500000000000    0.7500000000000000 F
   0.7085889999999999    0.4360319999999999    0.0700990000000000 F
   0.0093440000000000    0.5470240000000000    0.6885110000000000 F
   0.5470240000000000    0.0093440000000000    0.1885110000000000 F
   0.4360319999999998    0.7085889999999999    0.5700990000000000 F
   0.2237500000000000    0.7762500000000000    0.2500000000000000 F
