In16 O24
1.0
   5.5897709999999998    0.0000000000000000    0.0000000000000000
   0.0000000000000000    5.7755310000000000    0.0000000000000000
   0.0000000000000000    0.0000000000000000   16.1352909999999987
In O
16 24
direct
   0.5014090000000000    0.7926170000000000    0.5700990000000000 In
   0.0014090000000000    0.7073830000000001    0.4299010000000000 In
   0.4985910000000001    0.2926170000000000    0.9299010000000000 In
   0.9985910000000000    0.2073830000000000    0.0700990000000000 In
   0.4985910000000001    0.2073830000000000    0.4299010000000000 In
   0.9985910000000000    0.2926170000000000    0.5700990000000000 In
   0.5014090000000000    0.7073830000000001    0.0700990000000000 In
   0.0014090000000000    0.7926170000000000    0.9299010000000000 In
   0.4989150000000001    0.7382820000000000    0.8185120000000000 In
   0.9989150000000001    0.7617180000000000    0.1814880000000000 In
   0.5010850000000000    0.2382820000000000    0.6814880000000000 In
   0.0010850000000000    0.2617180000000000    0.3185120000000000 In
   0.5010850000000000    0.2617180000000000    0.1814880000000000 In
   0.0010850000000000    0.2382820000000000    0.8185120000000000 In
   0.4989150000000001    0.7617180000000000    0.3185120000000000 In
   0.9989150000000001    0.7382820000000000    0.6814880000000000 In
   0.8610550000000000    0.8725230000000002    0.7980790000000000 O
   0.3610550000000000    0.6274770000000000    0.2019210000000000 O
   0.1389450000000000    0.3725230000000000    0.7019210000000000 O
   0.6389450000000000    0.1274770000000000    0.2980790000000000 O
   0.1389450000000000    0.1274770000000000    0.2019210000000000 O
   0.6389450000000000    0.3725230000000000    0.7980790000000000 O
   0.8610550000000000    0.6274770000000000    0.2980790000000000 O
   0.3610550000000000    0.8725230000000002    0.7019210000000000 O
   0.7060020000000001    0.5181870000000000    0.6236850000000000 O
   0.2060020000000000    0.9818130000000000    0.3763150000000000 O
   0.2939980000000000    0.0181870000000000    0.8763150000000000 O
   0.7939980000000001    0.4818130000000000    0.1236850000000000 O
   0.2939980000000000    0.4818130000000000    0.3763150000000000 O
   0.7939980000000001    0.0181870000000000    0.6236850000000000 O
   0.7060020000000001    0.9818130000000000    0.1236850000000000 O
   0.2060020000000000    0.5181870000000000    0.8763150000000000 O
   0.6487630000000000    0.6541010000000000    0.9474279999999999 O
   0.1487630000000000    0.8458990000000000    0.0525720000000000 O
   0.3512370000000000    0.1541010000000000    0.5525720000000000 O
   0.8512370000000000    0.3458990000000000    0.4474280000000000 O
   0.3512370000000000    0.3458990000000000    0.0525720000000000 O
   0.8512370000000000    0.1541010000000000    0.9474279999999999 O
   0.6487630000000000    0.8458990000000000    0.4474280000000000 O
   0.1487630000000000    0.6541010000000000    0.5525720000000000 O
