S6 N4
1.0
   4.3136700000000001    0.0000000000000000    0.0000000000000000
   0.0000000000000000    5.1573739999999999    0.0000000000000000
   0.0000000000000000    0.0000000000000000    8.7600719999999992
S N
6 4
direct
   0.3847400000000000    0.1976100000000000    0.7743660000000000 S
   0.3847400000000000    0.1976100000000000    0.2256340000000000 S
   0.8847400000000000    0.8023900000000000    0.7256340000000000 S
   0.8847400000000000    0.8023900000000000    0.2743660000000000 S
   0.4668309999999999    0.7868539999999999    0.0000000000000000 S
   0.9668310000000000    0.2131460000000000    0.5000000000000000 S
   0.5966450000000000    0.9538260000000000    0.8429460000000000 N
   0.5966450000000000    0.9538260000000000    0.1570540000000000 N
   0.0966450000000000    0.0461740000000000    0.6570540000000000 N
   0.0966450000000000    0.0461740000000000    0.3429460000000000 N
