Sb7 Pd20
1.0
   5.0797860000000004   -5.9632550000000002    0.0000000000000000
   5.0797860000000004    5.9632550000000002    0.0000000000000000
  -1.9205880000000000    0.0000000000000000    7.5944700000000003
Sb Pd
7 20
direct
   0.0000000000000000    0.0000000000000000    0.0000000000000000 Sb
   0.4548430000000001    0.8772950000000000    0.7250690000000000 Sb
   0.8772950000000000    0.7250690000000001    0.4548430000000000 Sb
   0.7250690000000000    0.4548430000000001    0.8772950000000000 Sb
   0.5451570000000000    0.1227050000000000    0.2749310000000000 Sb
   0.1227050000000000    0.2749310000000000    0.5451570000000000 Sb
   0.2749310000000000    0.5451570000000000    0.1227050000000000 Sb
   0.3770460000000000    0.3770460000000000    0.3770459999999999 Pd
   0.6229540000000000    0.6229540000000000    0.6229539999999999 Pd
   0.0008920000000000    0.3394960000000000    0.2248120000000000 Pd
   0.3394960000000000    0.2248120000000000    0.0008920000000000 Pd
   0.2248120000000000    0.0008910000000000    0.3394960000000000 Pd
   0.9991080000000001    0.6605040000000000    0.7751879999999999 Pd
   0.6605040000000001    0.7751880000000001    0.9991090000000000 Pd
   0.7751880000000000    0.9991090000000000    0.6605039999999999 Pd
   0.6886219999999998    0.1444240000000000    0.9881330000000000 Pd
   0.1444240000000001    0.9881330000000000    0.6886219999999998 Pd
   0.9881330000000003    0.6886220000000002    0.1444240000000000 Pd
   0.3113780000000000    0.8555760000000000    0.0118670000000000 Pd
   0.8555759999999999    0.0118670000000000    0.3113780000000000 Pd
   0.0118670000000000    0.3113779999999999    0.8555760000000000 Pd
   0.2072749999999999    0.6640279999999998    0.4769200000000000 Pd
   0.6640280000000000    0.4769200000000000    0.2072750000000000 Pd
   0.4769200000000000    0.2072750000000000    0.6640280000000000 Pd
   0.7927250000000000    0.3359720000000000    0.5230800000000000 Pd
   0.3359720000000000    0.5230800000000000    0.7927250000000000 Pd
   0.5230800000000000    0.7927250000000000    0.3359720000000000 Pd
