Na8 Si46
1.0
  10.2437539999999991    0.0000000000000000    0.0000000000000000
   0.0000000000000000   10.2437539999999991    0.0000000000000000
   0.0000000000000000    0.0000000000000000   10.2437539999999991
Na Si
8 46
direct
   0.0000000000000000    0.2500000000000000    0.5000000000000000 Na
   0.0000000000000000    0.7500000000000000    0.5000000000000000 Na
   0.5000000000000000    0.0000000000000000    0.7500000000000000 Na
   0.5000000000000000    0.0000000000000000    0.2500000000000000 Na
   0.7500000000000000    0.5000000000000000    0.0000000000000000 Na
   0.2500000000000000    0.5000000000000000    0.0000000000000000 Na
   0.5000000000000000    0.5000000000000000    0.5000000000000000 Na
   0.0000000000000000    0.0000000000000000    0.0000000000000000 Na
   0.6840860000000000    0.6840860000000000    0.3159140000000000 Si
   0.3159140000000000    0.6840860000000000    0.6840860000000000 Si
   0.8159140000000000    0.8159140000000000    0.1840860000000000 Si
   0.1840860000000000    0.8159140000000000    0.8159140000000000 Si
   0.8159140000000000    0.1840860000000000    0.8159140000000000 Si
   0.3159140000000000    0.3159140000000000    0.3159140000000000 Si
   0.8159140000000000    0.8159140000000000    0.8159140000000000 Si
   0.3159140000000000    0.6840860000000000    0.3159140000000000 Si
   0.3159140000000000    0.3159140000000000    0.6840860000000000 Si
   0.6840860000000000    0.3159140000000000    0.3159140000000000 Si
   0.1840860000000000    0.1840860000000000    0.8159140000000000 Si
   0.8159140000000000    0.1840860000000000    0.1840860000000000 Si
   0.1840860000000000    0.8159140000000000    0.1840860000000000 Si
   0.6840860000000000    0.6840860000000000    0.6840860000000000 Si
   0.0000000000000000    0.3078110000000000    0.1172510000000000 Si
   0.5000000000000000    0.3827490000000000    0.8078109999999999 Si
   0.5000000000000000    0.6172510000000000    0.1921890000000000 Si
   0.6172510000000000    0.8078109999999999    0.5000000000000000 Si
   0.3827490000000000    0.8078109999999999    0.5000000000000000 Si
   0.1921890000000000    0.5000000000000000    0.6172510000000000 Si
   0.8078109999999999    0.5000000000000000    0.6172510000000000 Si
   0.1172510000000000    0.0000000000000000    0.3078110000000000 Si
   0.3078110000000000    0.1172510000000000    0.0000000000000000 Si
   0.6921890000000001    0.8827490000000001    0.0000000000000000 Si
   0.1172510000000000    0.0000000000000000    0.6921890000000001 Si
   0.6921890000000001    0.1172510000000000    0.0000000000000000 Si
   0.8827490000000001    0.0000000000000000    0.3078110000000000 Si
   0.8827490000000001    0.0000000000000000    0.6921890000000001 Si
   0.3078110000000000    0.8827490000000001    0.0000000000000000 Si
   0.0000000000000000    0.6921890000000001    0.8827490000000001 Si
   0.0000000000000000    0.3078110000000000    0.8827490000000001 Si
   0.0000000000000000    0.6921890000000001    0.1172510000000000 Si
   0.8078109999999999    0.5000000000000000    0.3827490000000000 Si
   0.1921890000000000    0.5000000000000000    0.3827490000000000 Si
   0.6172510000000000    0.1921890000000000    0.5000000000000000 Si
   0.3827490000000000    0.1921890000000000    0.5000000000000000 Si
   0.5000000000000000    0.6172510000000000    0.8078109999999999 Si
   0.5000000000000000    0.3827490000000000    0.1921890000000000 Si
   0.6840860000000000    0.3159140000000000    0.6840860000000000 Si
   0.1840860000000000    0.1840860000000000    0.1840860000000000 Si
   0.5000000000000000    0.2500000000000000    0.0000000000000000 Si
   0.5000000000000000    0.7500000000000000    0.0000000000000000 Si
   0.0000000000000000    0.5000000000000000    0.7500000000000000 Si
   0.0000000000000000    0.5000000000000000    0.2500000000000000 Si
   0.7500000000000000    0.0000000000000000    0.5000000000000000 Si
   0.2500000000000000    0.0000000000000000    0.5000000000000000 Si
