In6 Cl2
1.0
   3.2904990000000001   -5.6993109999999998    0.0000000000000000
   3.2904990000000001    5.6993109999999998    0.0000000000000000
   0.0000000000000000    0.0000000000000000    6.1189380000000000
In Cl
6 2
direct
   0.1650970000000000    0.3301940000000000    0.2500000000000000 In
   0.6698060000000000    0.8349029999999998    0.2500000000000000 In
   0.1650970000000000    0.8349030000000000    0.2500000000000000 In
   0.8349029999999998    0.6698060000000000    0.7500000000000001 In
   0.3301940000000000    0.1650970000000000    0.7500000000000001 In
   0.8349030000000000    0.1650970000000000    0.7500000000000001 In
   0.3333329999999999    0.6666669999999999    0.7500000000000001 Cl
   0.6666669999999999    0.3333329999999999    0.2500000000000000 Cl
