As8 O24
1.0
 -19.2033540900000013  -19.2033540900000013   -0.0000000000000000
 -19.2033540900000013   -0.0000000000000000  -19.2033540900000013
   0.0000000000000000  -19.2033540900000013  -19.2033540900000013
As O
8 24
direct
   0.7725890600000000    0.7725890600000000    0.7725890600000000 As
   0.6822328099999999    0.7725890600000000    0.7725890600000000 As
   0.7725890600000000    0.6822328100000000    0.7725890600000000 As
   0.0677671899999999    0.9774109399999998    0.9774109400000000 As
   0.9774109400000000    0.9774109400000000    0.9774109399999998 As
   0.7725890600000000    0.7725890600000000    0.6822328100000000 As
   0.9774109399999998    0.0677671899999999    0.9774109400000000 As
   0.9774109400000001    0.9774109400000000    0.0677671899999999 As
   0.7023841399999999    0.7023841400000000    0.0475858900000000 O
   0.5476458199999999    0.0475858900000001    0.7023841399999999 O
   0.0475858900000001    0.5476458199999999    0.7023841400000000 O
   0.7023841400000002    0.0475858900000000    0.7023841400000000 O
   0.2023541799999999    0.0476158600000000    0.7024141099999999 O
   0.0476158600000000    0.0476158600000000    0.7024141099999999 O
   0.7023841399999999    0.7023841400000000    0.5476458199999998 O
   0.0475858900000001    0.7023841400000000    0.5476458199999999 O
   0.0476158600000000    0.7024141099999999    0.0476158600000000 O
   0.2023541799999999    0.7024141099999999    0.0476158600000000 O
   0.5476458199999999    0.7023841400000000    0.0475858900000000 O
   0.0476158600000000    0.2023541800000000    0.0476158600000000 O
   0.7024141099999999    0.2023541800000000    0.0476158600000000 O
   0.7023841400000002    0.5476458199999999    0.7023841400000000 O
   0.7024141100000000    0.0476158600000000    0.2023541800000000 O
   0.0476158600000000    0.0476158600000000    0.2023541800000000 O
   0.0475858900000000    0.7023841400000000    0.7023841400000000 O
   0.7023841400000000    0.0475858900000001    0.5476458199999999 O
   0.5476458199999999    0.7023841400000000    0.7023841400000000 O
   0.7023841400000000    0.5476458199999999    0.0475858900000000 O
   0.0476158600000000    0.7024141100000000    0.2023541800000000 O
   0.7024141100000000    0.0476158600000000    0.0476158600000000 O
   0.0476158600000000    0.2023541800000000    0.7024141100000000 O
   0.2023541800000000    0.0476158600000000    0.0476158600000000 O
