Zr4 O8
1.0
   5.0749890000000004    0.0000000000000000    0.0000000000000000
   0.0000000000000000    5.4401570000000001    0.0000000000000000
   0.0000000000000000    0.0000000000000000    5.9022790000000001
Zr O
4 8
direct
   0.4178720000000000    0.2500000000000000    0.8571800000000001 Zr
   0.9178720000000000    0.7500000000000000    0.6428199999999999 Zr
   0.0821280000000000    0.2500000000000000    0.3571800000000000 Zr
   0.5821280000000001    0.7500000000000000    0.1428200000000000 Zr
   0.2210590000000000    0.0136010000000000    0.6181930000000000 O
   0.7210590000000000    0.9863990000000000    0.8818070000000000 O
   0.2210590000000000    0.4863990000000000    0.6181930000000000 O
   0.7210590000000000    0.5136010000000000    0.8818070000000000 O
   0.2789410000000000    0.0136010000000000    0.1181930000000000 O
   0.7789410000000000    0.9863990000000000    0.3818070000000001 O
   0.2789410000000000    0.4863990000000000    0.1181930000000000 O
   0.7789410000000000    0.5136010000000000    0.3818070000000001 O
