La2 O6
1.0
   4.3853358399999998    0.0302976200000000   -1.5797361400000001
  -3.0344985300000000    6.6833868799999996    4.8688823200000000
  -0.5928556000000000   -0.5541671500000001    4.8120825600000003
La O
2 6
direct
   0.3804213900000000    0.7370713300000000    0.2811119599999999 La
   0.6308628599999999    0.2648869699999999    0.7191397899999998 La
   0.3497255300000001    0.9582475100000000    0.7665550800000001 O
   0.2910631900000000    0.3918011600000000    0.8001307900000000 O
   0.9041435400000000    0.6551016700000000    0.4974544000000001 O
   0.7210985900000000    0.6109654199999999    0.1987978900000000 O
   0.6439104499999999    0.0441413500000000    0.2329947900000000 O
   0.1075394500000000    0.3473005900000000    0.5018192999999999 O
