Pt4 I8
1.0
   9.1338650000000001    0.0000000000000000    0.0000000000000000
   0.0000000000000000    7.0601779999999996    0.0000000000000000
   0.0000000000000000    1.5409999999999999    6.9348000000000001
Pt I
4 8
direct
   0.6312470000000000    0.2173920000000000    0.5050040000000000 Pt
   0.1312470000000000    0.7826079999999999    0.9949960000000000 Pt
   0.3687530000000000    0.7826079999999999    0.4949960000000000 Pt
   0.8687530000000000    0.2173920000000000    0.0050040000000000 Pt
   0.8198410000000000    0.4271410000000000    0.2641820000000000 I
   0.3198410000000000    0.5728589999999999    0.2358180000000000 I
   0.1801590000000000    0.5728590000000000    0.7358180000000000 I
   0.6801590000000000    0.4271410000000000    0.7641820000000000 I
   0.9278989999999999    0.9848730000000000    0.7743620000000000 I
   0.4278990000000000    0.0151270000000000    0.7256380000000000 I
   0.0721010000000000    0.0151270000000000    0.2256380000000000 I
   0.5721010000000000    0.9848730000000000    0.2743620000000000 I
