Ca2 Au4
1.0
  -2.3439630000000000    3.5687410000000002    4.1525299999999996
   2.3439630000000000   -3.5687410000000002    4.1525299999999996
   2.3439630000000000    3.5687410000000002   -4.1525299999999996
Ca Au
2 4
direct
   0.7106369999999999    0.4606370000000000    0.2499999999999999 Ca
   0.2893629999999999    0.5393629999999999    0.7499999999999999 Ca
   0.2996130000000000    0.8381050000000000    0.4615079999999998 Au
   0.7003870000000000    0.1618950000000000    0.5384920000000000 Au
   0.8765970000000000    0.8381050000000000    0.0384919999999999 Au
   0.1234029999999999    0.1618950000000001    0.9615079999999999 Au
