Mn2 O4
1.0
   0.0000000000000000    8.6232589999999991   14.4412730000000007
   2.0814780000000002    0.0000000000000000   14.4412730000000007
   2.0814780000000002    8.6232589999999991    0.0000000000000000
Mn O
2 4
direct
   0.4999690000000000    0.0000310000000000    0.0000310000000000 Mn
   0.2499690000000001    0.7500310000000000    0.7500309999999999 Mn
   0.4617370000000000    0.1121940000000001    0.8877750000000000 O
   0.1378060000000001    0.7882629999999999    0.7117050000000000 O
   0.5382950000000000    0.8877750000000000    0.1121939999999999 O
   0.3622250000000000    0.7117050000000000    0.7882629999999998 O
