Lu2 P10
1.0
   9.3254420000000007    0.0000000000000000    0.0000000000000000
   0.0000000000000000    4.9054810000000000    0.0000000000000000
   0.0000000000000000    1.1396999999999999    5.1716490000000004
Lu P
2 10
direct
   0.2500000000000000    0.9981760000000000    0.3469220000000000 Lu
   0.7500000000000000    0.0018240000000000    0.6530779999999999 Lu
   0.2500000000000000    0.7308170000000000    0.8898950000000000 P
   0.7500000000000000    0.2691830000000000    0.1101050000000000 P
   0.4061950000000000    0.3830230000000000    0.9575760000000000 P
   0.9061950000000000    0.6169770000000000    0.0424240000000000 P
   0.5938050000000000    0.6169770000000000    0.0424240000000000 P
   0.0938050000000000    0.3830230000000000    0.9575760000000000 P
   0.4718180000000001    0.2821279999999999    0.5943270000000000 P
   0.9718180000000001    0.7178720000000000    0.4056730000000000 P
   0.5281820000000000    0.7178720000000000    0.4056730000000000 P
   0.0281820000000000    0.2821279999999999    0.5943270000000000 P
