Ca1 Zn3
1.0
   4.3348360000000001    0.0000000000000000    0.0000000000000000
   0.0000000000000000    4.3348360000000001    0.0000000000000000
   0.0000000000000000    0.0000000000000000    4.3348360000000001
Ca Zn
1 3
direct
   0.0000000000000000    0.0000000000000000    0.0000000000000000 Ca
   0.5000000000000000    0.5000000000000000    0.0000000000000000 Zn
   0.5000000000000000    0.0000000000000000    0.5000000000000000 Zn
   0.0000000000000000    0.5000000000000000    0.5000000000000000 Zn
