Pr8 S16
1.0
   4.1032789999999997    0.0000000000000000    0.0000000000000000
   0.0000000000000000    8.0862110000000005    0.0000000000000000
   0.0000000000000000    0.0000000000000000   16.3667330000000000
Pr S
8 16
direct
   0.2182410000000000    0.1286580000000000    0.3880190000000000 Pr
   0.7182410000000000    0.3713430000000000    0.6119810000000000 Pr
   0.2817590000000000    0.6286569999999999    0.1119810000000000 Pr
   0.7817590000000001    0.8713430000000000    0.8880190000000000 Pr
   0.7817590000000001    0.8713430000000000    0.6119810000000000 Pr
   0.2817590000000000    0.6286569999999999    0.3880190000000000 Pr
   0.7182410000000000    0.3713430000000000    0.8880190000000000 Pr
   0.2182410000000000    0.1286580000000000    0.1119810000000000 Pr
   0.7410330000000002    0.3747420000000000    0.4335210000000000 S
   0.2410330000000000    0.1252580000000000    0.5664790000000000 S
   0.7589669999999999    0.8747420000000000    0.0664790000000000 S
   0.2589670000000001    0.6252579999999999    0.9335210000000000 S
   0.2589670000000001    0.6252579999999999    0.5664790000000000 S
   0.7589669999999999    0.8747420000000000    0.4335210000000000 S
   0.2410330000000000    0.1252580000000000    0.9335210000000000 S
   0.7410330000000002    0.3747420000000000    0.0664790000000000 S
   0.1436560000000000    0.3907170000000000    0.2500000000000000 S
   0.6436560000000001    0.1092830000000000    0.7500000000000000 S
   0.3563440000000000    0.8907170000000000    0.2500000000000000 S
   0.8563440000000000    0.6092830000000000    0.7500000000000000 S
   0.6644820000000001    0.1009360000000000    0.2500000000000000 S
   0.1644820000000000    0.3990640000000000    0.7500000000000000 S
   0.8355180000000000    0.6009360000000000    0.2500000000000000 S
   0.3355180000000000    0.8990640000000000    0.7500000000000000 S
