Ba1 Pm3
1.0
  -2.7087810000000001    2.7087810000000001    5.2335349999999998
   2.7087810000000001   -2.7087810000000001    5.2335349999999998
   2.7087810000000001    2.7087810000000001   -5.2335349999999998
Ba Pm
1 3
direct
   0.0000000000000000    0.0000000000000000    0.0000000000000000 Ba
   0.7500000000000000    0.2500000000000000    0.5000000000000000 Pm
   0.2500000000000000    0.7500000000000000    0.5000000000000000 Pm
   0.5000000000000000    0.5000000000000000    0.0000000000000000 Pm
