Sc3 In1
1.0
   4.5328920000000004    0.0000000000000000    0.0000000000000000
   0.0000000000000000    4.5328920000000004    0.0000000000000000
   0.0000000000000000    0.0000000000000000    4.5328920000000004
Sc In
3 1
direct
   0.5000000000000000    0.5000000000000000    0.0000000000000000 Sc
   0.5000000000000000    0.0000000000000000    0.5000000000000000 Sc
   0.0000000000000000    0.5000000000000000    0.5000000000000000 Sc
   0.0000000000000000    0.0000000000000000    0.0000000000000000 In
