P1 Au3
1.0
  -2.0369380000000001    2.0369380000000001    4.2535740000000004
   2.0369380000000001   -2.0369380000000001    4.2535740000000004
   2.0369380000000001    2.0369380000000001   -4.2535740000000004
P Au
1 3
direct
   0.0000000000000000    0.0000000000000000    0.0000000000000000 P
   0.7500000000000000    0.2500000000000000    0.5000000000000000 Au
   0.2500000000000000    0.7500000000000000    0.5000000000000000 Au
   0.5000000000000000    0.5000000000000000    0.0000000000000000 Au
