Sn34 O68
1.0
  11.2597641500000005   -0.1495076300000000   -0.2359943600000000
  -0.1385610300000000   11.2358205899999994   -0.7137617100000000
  -0.2556504800000000   -0.7082181900000000   11.7582761799999993
Sn O
34 68
direct
   0.4558167600000000    0.5195339200000000    0.7015692100000001 Sn
   0.1460678200000000    0.0711087500000000    0.3286358000000000 Sn
   0.4030186000000001    0.5895142900000000    0.9761552800000000 Sn
   0.0071511500000000    0.1627656100000000    0.6024754100000000 Sn
   0.1847490400000000    0.4091553400000000    0.7304744600000000 Sn
   0.7055435400000001    0.3510994500000000    0.9707589700000001 Sn
   0.8483258400000001    0.6804687800000000    0.1509983900000000 Sn
   0.1082454500000000    0.4826830100000000    0.2456882700000000 Sn
   0.7496306500000001    0.9340375800000000    0.6345747800000000 Sn
   0.1580617900000000    0.8764838500000001    0.4965708300000000 Sn
   0.0688803800000000    0.6289456799999998    0.9732161199999999 Sn
   0.4083850400000000    0.8593119199999999    0.6205602099999999 Sn
   0.5555920400000001    0.7668644799999998    0.8370164699999999 Sn
   0.7184680600000000    0.9989231400000002    0.9376618899999999 Sn
   0.6007804200000001    0.6132358200000000    0.2506246700000000 Sn
   0.4478593600000001    0.9401857500000000    0.0540943400000000 Sn
   0.9516723100000002    0.5799792399999999    0.5479378700000000 Sn
   0.2231319800000001    0.5869227100000000    0.4799372600000000 Sn
   0.7801458700000001    0.3545217700000001    0.6339765100000000 Sn
   0.0890971900000000    0.9764680300000000    0.0200644000000000 Sn
   0.8491153000000000    0.7065920500000000    0.8133909900000000 Sn
   0.4227942400000001    0.3987501400000000    0.3958831899999999 Sn
   0.8045672800000001    0.3889785800000000    0.3088377200000000 Sn
   0.0633469900000000    0.8627443100000000    0.7218675000000000 Sn
   0.9501501700000000    0.1887289300000000    0.1130580200000000 Sn
   0.6464762100000000    0.6301919399999999    0.5230649200000000 Sn
   0.2249759500000000    0.7660305799999999    0.1937225800000000 Sn
   0.6493244300000000    0.1354921300000000    0.1800824300000000 Sn
   0.4660318400000000    0.0267900800000000    0.3502645999999999 Sn
   0.2698411700000001    0.2439064200000000    0.1171391300000000 Sn
   0.2556606700000000    0.1241102000000000    0.8639017699999999 Sn
   0.9690750400000000    0.3020037200000000    0.8448103800000001 Sn
   0.3399575600000000    0.1897846400000000    0.5893034500000000 Sn
   0.8324097000000000    0.0659034100000000    0.3848617200000000 Sn
   0.0095768200000000    0.1358745200000000    0.4202386400000001 O
   0.8117390500000001    0.6588221500000000    0.4812661000000000 O
   0.2954876300000001    0.7561863600000001    0.4827942300000000 O
   0.6211130999999999    0.4928597100000000    0.6243117200000000 O
   0.8617468599999999    0.5613426500000001    0.6949195100000000 O
   0.2242110800000000    0.6311602100000001    0.2877617500000000 O
   0.2575034300000000    0.1791008200000000    0.2669709100000000 O
   0.1701948900000000    0.2532599200000000    0.5975162000000001 O
   0.5853152600000001    0.4876740800000000    0.3802688200000000 O
   0.7862388400000000    0.3433064200000000    0.8073426500000001 O
   0.6595277500000001    0.7530999400000000    0.6771695200000000 O
   0.6550195500000000    0.0679523800000000    0.3405096200000000 O
   0.3742288599999999    0.8681527700000000    0.1956571100000000 O
   0.8973371800000000    0.3091572800000000    0.0034605300000000 O
   0.9585660200000001    0.1353988500000000    0.7605331000000000 O
   0.0469184200000000    0.5567490800000000    0.4022943199999999 O
   0.3621235600000001    0.2315542300000000    0.9767619700000000 O
   0.5967618500000000    0.2696928800000001    0.6305000999999999 O
   0.1702259600000000    0.3881905199999999    0.1116250200000000 O
   0.4250640200000000    0.2349519700000000    0.4478337000000001 O
   0.2553229300000000    0.0427652700000000    0.4734416299999999 O
   0.3648381900000001    0.3588782300000001    0.6816134000000000 O
   0.7255547800000000    0.8042049999999999    0.9041512800000000 O
   0.5638792900000000    0.1568812700000000    0.6083419600000000 O
   0.6581528500000001    0.3131947100000000    0.2328195500000000 O
   0.6891592300000002    0.1724229400000000    0.0153333000000000 O
   0.1457933600000000    0.8830755899999999    0.3219615900000000 O
   0.8310679400000002    0.1540383700000000    0.2368821600000000 O
   0.0314813000000000    0.9759833300000000    0.5837094399999999 O
   0.4692178700000000    0.0943661700000000    0.1835552500000000 O
   0.8418867200000001    0.4132166299999999    0.4805046800000000 O
   0.1349793000000000    0.5280287700000000    0.6165913300000000 O
   0.0588111200000000    0.7392254299999999    0.5693138799999999 O
   0.9681201600000000    0.3430935000000000    0.6669642000000000 O
   0.5743706200000002    0.7236424299999999    0.3978784499999999 O
   0.8229462300000002    0.8317729099999999    0.2665502100000000 O
   0.5025184000000000    0.5368477200000000    0.1044382000000000 O
   0.0386498500000000    0.7344908500000000    0.8388350300000000 O
   0.4247534700000001    0.7094084600000000    0.7140848800000000 O
   0.5230501400000001    0.9464284299999999    0.8896438099999999 O
   0.9667118400000000    0.3497485400000000    0.2397378000000000 O
   0.7763153300000000    0.5416106200000000    0.2388091800000000 O
   0.8823938000000000    0.6416284699999999    0.9718665899999999 O
   0.3532478000000000    0.0989103200000000    0.7255750800000000 O
   0.8983328200000003    0.8974762399999999    0.3584216400000000 O
   0.9016091400000003    0.0273682400000000    0.0014415200000000 O
   0.4153271500000000    0.3473538500000000    0.2146683300000000 O
   0.1193502600000000    0.9878248900000000    0.8516049800000001 O
   0.2829688700000000    0.0055317600000000    0.0098809100000000 O
   0.8848683800000001    0.8516616100000000    0.7303033799999999 O
   0.3110791800000001    0.5314253600000000    0.8245406800000001 O
   0.3841451900000001    0.4704714000000000    0.2203193100000000 O
   0.2402669900000000    0.4265791099999999    0.3774213600000000 O
   0.0595522900000000    0.4753210600000000    0.8617962499999999 O
   0.5469252200000001    0.5765316900000000    0.8574370499999999 O
   0.2418768800000000    0.6349218700000000    0.0456301300000000 O
   0.1587121100000000    0.2735497100000000    0.8312684399999999 O
   0.7118761600000001    0.0356273100000000    0.7789174500000000 O
   0.0407596200000000    0.0465040600000000    0.1847343100000000 O
   0.8237359800000001    0.1659689400000000    0.5438114100000000 O
   0.1116234700000000    0.1655062700000000    0.0261620000000000 O
   0.2316841900000000    0.8868016600000000    0.6666762800000000 O
   0.6411810100000001    0.9640284900000001    0.0906930600000000 O
   0.0159026800000000    0.6019857100000000    0.1456491400000000 O
   0.3962386600000001    0.5350144100000001    0.5318494200000000 O
   0.4456649800000000    0.7632647299999999    0.9762454199999999 O
   0.6733363400000002    0.7059129299999999    0.1326957900000000 O
   0.0953949300000000    0.8106097600000001    0.0735067900000000 O
