Mg5 Hg1
1.0
   5.3715330000000003   -2.7344260000000000    0.0000000000000000
   5.3715330000000003    2.7344260000000000    0.0000000000000000
   3.9795490000000000    0.0000000000000000    4.5269899999999996
Mg Hg
5 1
direct
   0.1646800000000001    0.8353200000000002    0.5000000000000000 Mg
   0.5000000000000000    0.1646800000000000    0.8353200000000000 Mg
   0.8353199999999998    0.5000000000000000    0.1646800000000000 Mg
   0.3329780000000001    0.3329780000000001    0.3329780000000000 Mg
   0.6670219999999999    0.6670219999999999    0.6670220000000000 Mg
   0.0000000000000000    0.0000000000000000    0.0000000000000000 Hg
