Bi28 Rh6
1.0
   0.0000000000000000    8.8748070000000006   16.0686549999999997
   3.4659339999999998    0.0000000000000000   16.0686549999999997
   3.4659339999999998    8.8748070000000006    0.0000000000000000
Bi Rh
28 6
direct
   0.0822070000000001    0.8128549999999999    0.7970469999999997 Bi
   0.1725430000000001    0.5439700000000000    0.8885250000000000 Bi
   0.2231750000000001    0.7768250000000000    0.2231750000000000 Bi
   0.9421089999999999    0.4529530000000001    0.4371450000000001 Bi
   0.8204389999999999    0.7856680000000000    0.4441250000000002 Bi
   0.3002330000000001    0.8058749999999999    0.4643319999999999 Bi
   0.7970469999999999    0.3078910000000001    0.0822070000000000 Bi
   0.5439700000000000    0.1725430000000000    0.3949619999999999 Bi
   0.3949620000000000    0.8885250000000001    0.5439700000000001 Bi
   0.9497669999999999    0.4441250000000000    0.7856680000000001 Bi
   0.4295610000000002    0.4643320000000000    0.8058750000000000 Bi
   0.3614749999999999    0.8550380000000001    0.0774570000000000 Bi
   0.1677930000000001    0.4371450000000000    0.4529530000000001 Bi
   0.8885250000000000    0.3949620000000000    0.1725429999999999 Bi
   0.0774569999999999    0.7060300000000002    0.3614750000000000 Bi
   0.8058750000000000    0.3002330000000000    0.4295610000000000 Bi
   0.4731750000000000    0.0268250000000001    0.4731749999999999 Bi
   0.3078910000000002    0.7970469999999998    0.8128549999999998 Bi
   0.4643320000000000    0.4295610000000001    0.3002330000000000 Bi
   0.4529530000000001    0.9421090000000000    0.1677930000000000 Bi
   0.7768250000000000    0.2231750000000000    0.7768250000000001 Bi
   0.4371450000000001    0.1677930000000001    0.9421090000000000 Bi
   0.0268250000000000    0.4731750000000000    0.0268250000000000 Bi
   0.4441250000000000    0.9497669999999999    0.8204390000000000 Bi
   0.7856680000000000    0.8204389999999999    0.9497669999999999 Bi
   0.8550380000000000    0.3614750000000000    0.7060300000000002 Bi
   0.8128549999999999    0.0822070000000000    0.3078910000000001 Bi
   0.7060300000000000    0.0774570000000001    0.8550380000000000 Bi
   0.6250000000000001    0.6250000000000000    0.1250000000000000 Rh
   0.7500000000000001    0.7499999999999999    0.7499999999999998 Rh
   0.6250000000000001    0.1250000000000001    0.6250000000000000 Rh
   0.6250000000000001    0.6250000000000000    0.6250000000000000 Rh
   0.1250000000000001    0.6250000000000000    0.6250000000000000 Rh
   0.5000000000000000    0.5000000000000000    0.5000000000000000 Rh
