Ti2 O4
1.0
  -1.9013549999999999    1.9013549999999999    4.8738760000000001
   1.9013549999999999   -1.9013549999999999    4.8738760000000001
   1.9013549999999999    1.9013549999999999   -4.8738760000000001
Ti O
2 4
direct
   0.7500000000000001    0.2500000000000000    0.5000000000000000 Ti
   0.0000000000000000    0.0000000000000000    0.0000000000000000 Ti
   0.9561630000000001    0.4561630000000001    0.5000000000000000 O
   0.7938370000000000    0.7938370000000000    0.0000000000000000 O
   0.5438370000000001    0.0438370000000000    0.5000000000000000 O
   0.2061630000000000    0.2061630000000000    0.0000000000000000 O
