Cd15 I30
1.0
   2.1684899999999998   -3.7559339999999999    0.0000000000000000
   2.1684899999999998    3.7559339999999999    0.0000000000000000
   0.0000000000000000    0.0000000000000000  116.3416260000000051
Cd I
15 30
direct
   0.0000000000000000    0.0000000000000000    0.0167390000000000 Cd
   0.3333330000000000    0.6666670000000000    0.4831080000000000 Cd
   0.3333330000000000    0.6666670000000000    0.9501039999999999 Cd
   0.0000000000000000    0.0000000000000000    0.6166040000000000 Cd
   0.3333330000000000    0.6666670000000000    0.8167970000000000 Cd
   0.3333330000000000    0.6666670000000000    0.3501150000000000 Cd
   0.0000000000000000    0.0000000000000000    0.2833200000000000 Cd
   0.3333330000000000    0.6666670000000000    0.6833020000000000 Cd
   0.3333330000000000    0.6666670000000000    0.2166000000000000 Cd
   0.0000000000000000    0.0000000000000000    0.5500910000000000 Cd
   0.0000000000000000    0.0000000000000000    0.1498530000000000 Cd
   0.3333330000000000    0.6666670000000000    0.0832400000000000 Cd
   0.3333330000000000    0.6666670000000000    0.8834319999999999 Cd
   0.0000000000000000    0.0000000000000000    0.4166339999999999 Cd
   0.0000000000000000    0.0000000000000000    0.7500700000000000 Cd
   0.3333330000000000    0.6666670000000000    0.7352700000000000 I
   0.6666670000000000    0.3333330000000000    0.5648730000000000 I
   0.3333330000000000    0.6666670000000000    0.4018269999999999 I
   0.6666670000000000    0.3333330000000000    0.4314299999999999 I
   0.0000000000000000    0.0000000000000000    0.3353250000000000 I
   0.6666670000000000    0.3333330000000000    0.3648980000000000 I
   0.6666670000000000    0.3333330000000000    0.8982080000000000 I
   0.6666670000000000    0.3333330000000000    0.9648839999999999 I
   0.6666670000000000    0.3333330000000000    0.2313860000000000 I
   0.3333330000000000    0.6666670000000000    0.5353059999999999 I
   0.0000000000000000    0.0000000000000000    0.8020090000000000 I
   0.6666670000000000    0.3333330000000000    0.6980900000000000 I
   0.3333330000000000    0.6666670000000000    0.6018149999999999 I
   0.0000000000000000    0.0000000000000000    0.8686490000000000 I
   0.6666670000000000    0.3333330000000000    0.7648750000000000 I
   0.0000000000000000    0.0000000000000000    0.4683330000000000 I
   0.6666670000000000    0.3333330000000000    0.6313920000000000 I
   0.0000000000000000    0.0000000000000000    0.2018170000000000 I
   0.6666670000000000    0.3333330000000000    0.0980280000000000 I
   0.3333330000000000    0.6666670000000000    0.0019490000000000 I
   0.3333330000000000    0.6666670000000000    0.1350580000000000 I
   0.0000000000000000    0.0000000000000000    0.0684580000000000 I
   0.6666670000000000    0.3333330000000000    0.0315230000000000 I
   0.3333330000000000    0.6666670000000000    0.2685290000000000 I
   0.6666670000000000    0.3333330000000000    0.2981060000000000 I
   0.0000000000000000    0.0000000000000000    0.9353120000000000 I
   0.6666670000000000    0.3333330000000000    0.8315750000000000 I
   0.0000000000000000    0.0000000000000000    0.6685190000000000 I
   0.6666670000000000    0.3333330000000000    0.1646420000000000 I
   0.6666670000000000    0.3333330000000000    0.4979030000000000 I
