K8
1.0
   4.4804040000000001   -7.4077950000000001    0.0000000000000000
   4.4804040000000001    7.4077950000000001    0.0000000000000000
   0.0000000000000000    0.0000000000000000    8.9147820000000007
K
8
direct
   0.7786569999999999    0.2213430000000000    0.0000000000000000 K
   0.7213430000000000    0.2786570000000000    0.5000000000000000 K
   0.6810159999999998    0.6810160000000000    0.1801530000000000 K
   0.2786569999999999    0.7213430000000001    0.5000000000000000 K
   0.1810160000000000    0.1810160000000000    0.3198470000000000 K
   0.8189839999999999    0.8189840000000000    0.6801530000000000 K
   0.2213429999999999    0.7786570000000000    0.0000000000000000 K
   0.3189839999999999    0.3189840000000000    0.8198469999999999 K
