Al2 O4
1.0
   1.4881620000000000   -5.4028330000000002    0.0000000000000000
   1.4881620000000000    5.4028330000000002    0.0000000000000000
   0.0000000000000000    0.0000000000000000    3.6466120000000002
Al O
2 4
direct
   0.3318670000000000    0.6681330000000000    0.7499999999999999 Al
   0.6681330000000000    0.3318670000000000    0.2500000000000000 Al
   0.7058160000000000    0.2941840000000000    0.7499999999999999 O
   0.2941840000000000    0.7058160000000000    0.2500000000000000 O
   0.9389280000000001    0.0610720000000000    0.7499999999999999 O
   0.0610720000000000    0.9389280000000001    0.2500000000000000 O
