Nb20 Al10
1.0
  10.0023660000000003    0.0000000000000000    0.0000000000000000
   0.0000000000000000   10.0023660000000003    0.0000000000000000
   0.0000000000000000    0.0000000000000000    5.2019810000000000
Nb Al
20 10
direct
   0.3965430000000000    0.3965430000000000    0.0000000000000000 Nb
   0.8965430000000001    0.1034570000000000    0.5000000000000000 Nb
   0.1034570000000000    0.8965430000000001    0.5000000000000000 Nb
   0.6034570000000000    0.6034570000000000    0.0000000000000000 Nb
   0.1278830000000000    0.4649060000000000    0.0000000000000000 Nb
   0.9649060000000002    0.3721170000000000    0.5000000000000000 Nb
   0.0350940000000000    0.6278830000000000    0.5000000000000000 Nb
   0.8721170000000000    0.5350940000000000    0.0000000000000000 Nb
   0.3721170000000000    0.9649060000000002    0.5000000000000000 Nb
   0.6278830000000000    0.0350940000000000    0.5000000000000000 Nb
   0.4649060000000000    0.1278830000000000    0.0000000000000000 Nb
   0.5350940000000000    0.8721170000000000    0.0000000000000000 Nb
   0.1817690000000000    0.1817690000000000    0.2522500000000000 Nb
   0.6817690000000000    0.3182310000000000    0.7522500000000000 Nb
   0.3182310000000000    0.6817690000000000    0.7522500000000000 Nb
   0.8182310000000000    0.8182310000000000    0.2522500000000000 Nb
   0.3182310000000000    0.6817690000000000    0.2477500000000000 Nb
   0.6817690000000000    0.3182310000000000    0.2477500000000000 Nb
   0.1817690000000000    0.1817690000000000    0.7477500000000000 Nb
   0.8182310000000000    0.8182310000000000    0.7477500000000000 Nb
   0.0000000000000000    0.0000000000000000    0.0000000000000000 Al
   0.5000000000000000    0.5000000000000000    0.5000000000000000 Al
   0.2615560000000000    0.9331950000000000    0.0000000000000000 Al
   0.4331949999999999    0.2384440000000000    0.5000000000000000 Al
   0.5668050000000000    0.7615560000000000    0.5000000000000000 Al
   0.7384440000000000    0.0668050000000000    0.0000000000000000 Al
   0.2384440000000000    0.4331949999999999    0.5000000000000000 Al
   0.7615560000000000    0.5668050000000000    0.5000000000000000 Al
   0.9331950000000000    0.2615560000000000    0.0000000000000000 Al
   0.0668050000000000    0.7384440000000000    0.0000000000000000 Al
