Si46
1.0
  10.2273599999999991    0.0000000000000000    0.0000000000000000
   0.0000000000000000   10.2273599999999991    0.0000000000000000
   0.0000000000000000    0.0000000000000000   10.2273599999999991
Si
46
direct
   0.0000000000000000    0.8828200000000000    0.3078900000000000 Si
   0.0000000000000000    0.1171800000000000    0.6921100000000000 Si
   0.0000000000000000    0.1171800000000000    0.3078900000000000 Si
   0.0000000000000000    0.8828200000000000    0.6921100000000000 Si
   0.3078900000000000    0.0000000000000000    0.8828200000000000 Si
   0.3828200000000000    0.5000000000000000    0.1921100000000000 Si
   0.6921100000000000    0.0000000000000000    0.1171800000000000 Si
   0.6171800000000000    0.5000000000000000    0.8078900000000001 Si
   0.3078900000000000    0.0000000000000000    0.1171800000000000 Si
   0.6171800000000000    0.5000000000000000    0.1921100000000000 Si
   0.6921100000000000    0.0000000000000000    0.8828200000000000 Si
   0.3828200000000000    0.5000000000000000    0.8078900000000001 Si
   0.8828200000000000    0.3078900000000000    0.0000000000000000 Si
   0.5000000000000000    0.8078900000000001    0.6171800000000000 Si
   0.1171800000000000    0.6921100000000000    0.0000000000000000 Si
   0.5000000000000000    0.1921100000000000    0.3828200000000000 Si
   0.8828200000000000    0.6921100000000000    0.0000000000000000 Si
   0.5000000000000000    0.1921100000000000    0.6171800000000000 Si
   0.1171800000000000    0.3078900000000000    0.0000000000000000 Si
   0.5000000000000000    0.8078900000000001    0.3828200000000000 Si
   0.1921100000000000    0.3828200000000000    0.5000000000000000 Si
   0.8078900000000001    0.6171800000000000    0.5000000000000000 Si
   0.1921100000000000    0.6171800000000000    0.5000000000000000 Si
   0.8078900000000001    0.3828200000000000    0.5000000000000000 Si
   0.2500000000000000    0.5000000000000000    0.0000000000000000 Si
   0.7500000000000001    0.5000000000000000    0.0000000000000000 Si
   0.0000000000000000    0.2500000000000000    0.5000000000000000 Si
   0.0000000000000000    0.7500000000000001    0.5000000000000000 Si
   0.5000000000000000    0.0000000000000000    0.2500000000000000 Si
   0.5000000000000000    0.0000000000000000    0.7500000000000001 Si
   0.8163800000000001    0.8163800000000001    0.8163800000000001 Si
   0.1836200000000000    0.1836200000000000    0.1836200000000000 Si
   0.1836200000000000    0.1836200000000000    0.8163800000000001 Si
   0.1836200000000000    0.8163800000000001    0.1836200000000000 Si
   0.3163800000000000    0.3163800000000000    0.6836200000000001 Si
   0.8163800000000001    0.8163800000000001    0.1836200000000000 Si
   0.8163800000000001    0.1836200000000000    0.8163800000000001 Si
   0.6836200000000001    0.6836200000000001    0.3163800000000000 Si
   0.8163800000000001    0.1836200000000000    0.1836200000000000 Si
   0.6836200000000001    0.6836200000000001    0.6836200000000001 Si
   0.1836200000000000    0.8163800000000001    0.8163800000000001 Si
   0.3163800000000000    0.3163800000000000    0.3163800000000000 Si
   0.3163800000000000    0.6836200000000001    0.3163800000000000 Si
   0.6836200000000001    0.3163800000000000    0.6836200000000001 Si
   0.6836200000000001    0.3163800000000000    0.3163800000000000 Si
   0.3163800000000000    0.6836200000000001    0.6836200000000001 Si
