In2 Cu4
1.0
   2.2273749999999999   -3.8579260000000000    0.0000000000000000
   2.2273749999999999    3.8579260000000000    0.0000000000000000
   0.0000000000000000    0.0000000000000000    5.3682220000000003
In Cu
2 4
direct
   0.3333330000000000    0.6666670000000000    0.7500000000000000 In
   0.6666670000000000    0.3333330000000000    0.2500000000000000 In
   0.0000000000000000    0.0000000000000000    0.0000000000000000 Cu
   0.0000000000000000    0.0000000000000000    0.4999999999999999 Cu
   0.3333330000000000    0.6666670000000000    0.2500000000000000 Cu
   0.6666670000000000    0.3333330000000000    0.7500000000000000 Cu
