Fe2 F4
1.0
   3.3327369999999998   -0.0000100000000000    0.0000100000000000
  -0.0000140000000000    4.7949619999999999    0.0000370000000000
   0.0000140000000000    0.0000370000000000    4.7949409999999997
Fe F
2 4
direct
   0.0000000000000000    0.0000000000000000    0.0000000000000000 Fe
   0.4999999999999999    0.5000000000000000    0.5000000000000000 Fe
   0.0000000000000000    0.6990149999999999    0.6990149999999999 F
   0.4999930000000000    0.8009900000000000    0.1990100000000000 F
   0.0000000000000000    0.3009849999999999    0.3009850000000000 F
   0.5000069999999999    0.1990100000000000    0.8009900000000000 F
