Mg5 Sn1
1.0
   1.6243140000000000   -2.8133940000000002    0.0000000000000000
   1.6243140000000000    2.8133940000000002    0.0000000000000000
   0.0000000000000000    0.0000000000000000   15.4885610000000007
Mg Sn
5 1
direct
   0.0000000000000000    0.0000000000000000    0.1641300000000000 Mg
   0.6666670000000000    0.3333330000000000    0.3339079999999999 Mg
   0.0000000000000000    0.0000000000000000    0.4999999999999999 Mg
   0.6666670000000000    0.3333330000000000    0.6660919999999999 Mg
   0.0000000000000000    0.0000000000000000    0.8358700000000000 Mg
   0.6666670000000000    0.3333330000000000    0.0000000000000000 Sn
