Si13 Rh20
1.0
   5.9992989999999997  -10.3910900000000002    0.0000000000000000
   5.9992989999999997   10.3910900000000002    0.0000000000000000
   0.0000000000000000    0.0000000000000000    3.6340479999999999
Si Rh
13 20
direct
   0.1656089999999999    0.5497120000000000    0.2500790000000000 Si
   0.4502880000000000    0.6158970000000000    0.2500790000000000 Si
   0.3841030000000000    0.8343910000000001    0.2500790000000000 Si
   0.8343909999999999    0.4502880000000001    0.7499209999999999 Si
   0.5497119999999999    0.3841030000000000    0.7499209999999999 Si
   0.6158970000000000    0.1656090000000001    0.7499209999999999 Si
   0.0000000000000000    0.0000000000000000    0.0000000000000000 Si
   0.1073669999999999    0.7690530000000001    0.2477260000000000 Si
   0.2309470000000000    0.3383140000000001    0.2477260000000000 Si
   0.6616859999999999    0.8926330000000000    0.2477260000000000 Si
   0.8926329999999999    0.2309470000000000    0.7522740000000000 Si
   0.7690530000000000    0.6616860000000001    0.7522740000000000 Si
   0.3383140000000000    0.1073670000000000    0.7522740000000000 Si
   0.6666670000000000    0.3333330000000000    0.2487980000000000 Rh
   0.3333329999999999    0.6666670000000000    0.7512020000000001 Rh
   0.8160449999999999    0.8120469999999999    0.2469480000000000 Rh
   0.1879530000000000    0.0039980000000000    0.2469480000000000 Rh
   0.9960020000000001    0.1839550000000000    0.2469480000000000 Rh
   0.1839550000000000    0.1879530000000000    0.7530520000000001 Rh
   0.8120469999999997    0.9960020000000001    0.7530520000000001 Rh
   0.0039979999999999    0.8160450000000000    0.7530520000000001 Rh
   0.8712969999999999    0.6001430000000001    0.2523940000000000 Rh
   0.3998570000000000    0.2711530000000000    0.2523940000000000 Rh
   0.7288470000000000    0.1287030000000001    0.2523940000000000 Rh
   0.1287030000000000    0.3998570000000001    0.7476060000000000 Rh
   0.6001429999999999    0.7288470000000001    0.7476060000000000 Rh
   0.2711530000000000    0.8712970000000001    0.7476060000000000 Rh
   0.9288770000000000    0.3903250000000000    0.2508990000000000 Rh
   0.6096749999999999    0.5385520000000001    0.2508990000000000 Rh
   0.4614480000000000    0.0711230000000000    0.2508990000000000 Rh
   0.0711230000000000    0.6096750000000000    0.7491010000000001 Rh
   0.3903249999999999    0.4614480000000001    0.7491010000000001 Rh
   0.5385519999999999    0.9288770000000001    0.7491010000000001 Rh
