Ce9 Pt6
1.0
   6.1193249999999999   -4.4786570000000001    0.0000000000000000
   6.1193249999999999    4.4786570000000001    0.0000000000000000
   2.8414519999999999    0.0000000000000000    7.0306940000000004
Ce Pt
9 6
direct
   0.0000000000000000    0.0000000000000000    0.0000000000000000 Ce
   0.2070520000000001    0.2070520000000001    0.2070520000000000 Ce
   0.7929480000000001    0.7929480000000001    0.7929480000000000 Ce
   0.3889730000000000    0.6612490000000000    0.1671010000000000 Ce
   0.6612490000000001    0.1671010000000000    0.3889730000000001 Ce
   0.1671010000000001    0.3889730000000001    0.6612490000000000 Ce
   0.6110270000000001    0.3387510000000001    0.8328989999999999 Ce
   0.3387510000000001    0.8328989999999999    0.6110270000000000 Ce
   0.8328989999999999    0.6110270000000001    0.3387510000000000 Ce
   0.0449200000000000    0.8410830000000001    0.4061460000000000 Pt
   0.8410830000000001    0.4061460000000001    0.0449200000000000 Pt
   0.4061460000000000    0.0449200000000000    0.8410830000000000 Pt
   0.9550800000000002    0.1589170000000001    0.5938540000000000 Pt
   0.1589170000000001    0.5938540000000000    0.9550800000000002 Pt
   0.5938540000000000    0.9550800000000000    0.1589170000000000 Pt
