Cd12 I24
1.0
   2.1668460000000000   -3.7530869999999998    0.0000000000000000
   2.1668460000000000    3.7530869999999998    0.0000000000000000
   0.0000000000000000    0.0000000000000000   90.4298090000000059
Cd I
12 24
direct
   0.0000000000000000    0.0000000000000000    0.2708130000000000 Cd
   0.0000000000000000    0.0000000000000000    0.9374670000000001 Cd
   0.6666669999999999    0.3333330000000000    0.0208580000000000 Cd
   0.6666669999999999    0.3333330000000000    0.7708270000000000 Cd
   0.0000000000000000    0.0000000000000000    0.1041470000000000 Cd
   0.0000000000000000    0.0000000000000000    0.8541630000000000 Cd
   0.6666669999999999    0.3333330000000000    0.4374950000000000 Cd
   0.6666669999999999    0.3333330000000000    0.1875270000000000 Cd
   0.6666669999999999    0.3333330000000000    0.5208659999999999 Cd
   0.6666669999999999    0.3333330000000000    0.6041580000000000 Cd
   0.6666669999999999    0.3333330000000000    0.3541990000000000 Cd
   0.0000000000000000    0.0000000000000000    0.6874940000000000 Cd
   0.0000000000000000    0.0000000000000000    0.1684550000000000 I
   0.6666669999999999    0.3333330000000000    0.8350959999999998 I
   0.3333329999999999    0.6666670000000000    0.7898960000000000 I
   0.0000000000000000    0.0000000000000000    0.4184190000000000 I
   0.6666669999999999    0.3333330000000000    0.0850750000000000 I
   0.3333329999999999    0.6666670000000000    0.4565640000000000 I
   0.3333329999999999    0.6666670000000000    0.2065960000000000 I
   0.3333329999999999    0.6666670000000000    0.9565370000000000 I
   0.6666669999999999    0.3333330000000000    0.9183979999999999 I
   0.0000000000000000    0.0000000000000000    0.5850820000000000 I
   0.3333329999999999    0.6666670000000000    0.5399369999999999 I
   0.3333329999999999    0.6666670000000000    0.1232190000000000 I
   0.3333329999999999    0.6666670000000000    0.0399260000000000 I
   0.0000000000000000    0.0000000000000000    0.7517500000000000 I
   0.3333329999999999    0.6666670000000000    0.2898850000000000 I
   0.3333329999999999    0.6666670000000000    0.3732710000000000 I
   0.0000000000000000    0.0000000000000000    0.3351220000000000 I
   0.3333329999999999    0.6666670000000000    0.6232259999999999 I
   0.3333329999999999    0.6666670000000000    0.7065580000000000 I
   0.0000000000000000    0.0000000000000000    0.0017840000000000 I
   0.6666669999999999    0.3333330000000000    0.6684309999999999 I
   0.6666669999999999    0.3333330000000000    0.2517400000000000 I
   0.3333329999999999    0.6666670000000000    0.8732320000000000 I
   0.0000000000000000    0.0000000000000000    0.5017860000000000 I
