Sc1 Os3
1.0
   3.9572840000000000    0.0000000000000000    0.0000000000000000
   0.0000000000000000    3.9572840000000000    0.0000000000000000
   0.0000000000000000    0.0000000000000000    3.9572840000000000
Sc Os
1 3
direct
   0.0000000000000000    0.0000000000000000    0.0000000000000000 Sc
   0.0000000000000000    0.5000000000000000    0.5000000000000000 Os
   0.5000000000000000    0.0000000000000000    0.5000000000000000 Os
   0.5000000000000000    0.5000000000000000    0.0000000000000000 Os
