Pr8 Ge6
1.0
  -4.6277860000000004    4.6277860000000004    4.6277860000000004
   4.6277860000000004   -4.6277860000000004    4.6277860000000004
   4.6277860000000004    4.6277860000000004   -4.6277860000000004
Pr Ge
8 6
direct
   0.1334640000000000    0.5000000000000000    0.0000000000000000 Pr
   0.6334640000000000    0.4999999999999999   -0.0000000000000000 Pr
   0.5000000000000000    0.0000000000000000    0.6334640000000000 Pr
   0.3665360000000000    0.3665360000000000    0.3665360000000000 Pr
   0.4999999999999999   -0.0000000000000000    0.1334640000000000 Pr
   0.0000000000000000    0.6334640000000000    0.5000000000000000 Pr
   0.8665360000000001    0.8665360000000001    0.8665360000000001 Pr
   0.0000000000000000    0.1334639999999999    0.4999999999999999 Pr
   0.3750000000000000    0.6250000000000000    0.7500000000000000 Ge
   0.8750000000000000    0.2500000000000000    0.1250000000000000 Ge
   0.6250000000000000    0.7500000000000000    0.3750000000000000 Ge
   0.1250000000000000    0.8750000000000000    0.2500000000000000 Ge
   0.2500000000000000    0.1250000000000000    0.8750000000000000 Ge
   0.7500000000000000    0.3750000000000000    0.6250000000000000 Ge
