Ho1 Bi3
1.0
  -2.3376489999999999    2.3376489999999999    5.5100049999999996
   2.3376489999999999   -2.3376489999999999    5.5100049999999996
   2.3376489999999999    2.3376489999999999   -5.5100049999999996
Ho Bi
1 3
direct
   0.0000000000000000    0.0000000000000000    0.0000000000000000 Ho
   0.7500000000000000    0.2500000000000000    0.5000000000000000 Bi
   0.2500000000000000    0.7500000000000000    0.5000000000000000 Bi
   0.5000000000000000    0.5000000000000000    0.0000000000000000 Bi
