Y2 Os6
1.0
   2.9212669999999998   -5.0597830000000004    0.0000000000000000
   2.9212669999999998    5.0597830000000004    0.0000000000000000
   0.0000000000000000    0.0000000000000000    4.6375580000000003
Y Os
2 6
direct
   0.3333330000000000    0.6666670000000000    0.7500000000000000 Y
   0.6666670000000000    0.3333330000000000    0.2500000000000000 Y
   0.1564870000000000    0.3129730000000000    0.2500000000000000 Os
   0.6870270000000002    0.8435130000000001    0.2500000000000000 Os
   0.1564870000000000    0.8435130000000000    0.2500000000000000 Os
   0.8435130000000001    0.6870270000000002    0.7500000000000000 Os
   0.3129730000000000    0.1564870000000000    0.7500000000000000 Os
   0.8435130000000000    0.1564870000000000    0.7500000000000000 Os
