Fe21 S24
1.0
   3.3224109999999998   -5.7545840000000004    0.0000000000000000
   3.3224109999999998    5.7545840000000004    0.0000000000000000
   0.0000000000000000    0.0000000000000000   15.7743629999999992
Fe S
21 24
direct
   0.4793650000000000    0.4724540000000000    0.1796760000000000 Fe
   0.5275460000000000    0.0069120000000000    0.5130100000000000 Fe
   0.9930880000000000    0.5206350000000000    0.8463430000000001 Fe
   0.4327320000000002    0.9629570000000001    0.1624090000000000 Fe
   0.0370430000000000    0.4697740000000000    0.4957430000000000 Fe
   0.5302260000000000    0.5672680000000000    0.8290760000000001 Fe
   0.0124950000000000    0.9621650000000000    0.1622050000000000 Fe
   0.0378350000000000    0.0503300000000000    0.4955380000000000 Fe
   0.9496699999999999    0.9875050000000000    0.8288720000000001 Fe
   0.0101290000000000    0.5417160000000000    0.1538350000000000 Fe
   0.4582840000000000    0.4684130000000001    0.4871690000000001 Fe
   0.5315870000000000    0.9898709999999999    0.8205020000000000 Fe
   0.5273720000000000    0.0021550000000000    0.3343980000000000 Fe
   0.9978450000000000    0.5252170000000002    0.6677320000000000 Fe
   0.4747830000000000    0.4726280000000000    0.0010650000000000 Fe
   0.9520380000000001    0.0000340000000001    0.3249620000000000 Fe
   0.9999660000000000    0.9520030000000000    0.6582950000000000 Fe
   0.0479970000000000    0.0479620000000000    0.9916290000000000 Fe
   0.9552940000000001    0.4302640000000000    0.3197160000000001 Fe
   0.5697360000000000    0.5250300000000001    0.6530490000000000 Fe
   0.4749700000000000    0.0447060000000000    0.9863830000000001 Fe
   0.1643570000000000    0.3301810000000000    0.0905690000000000 S
   0.6698190000000001    0.8341759999999999    0.4239020000000000 S
   0.1658240000000000    0.8356429999999999    0.7572360000000000 S
   0.1594640000000001    0.8344860000000000    0.0660300000000000 S
   0.1655140000000000    0.3249780000000000    0.3993630000000001 S
   0.6750220000000000    0.8405359999999999    0.7326960000000000 S
   0.6452520000000000    0.3262579999999999    0.0888420000000000 S
   0.6737420000000000    0.3189940000000000    0.4221760000000000 S
   0.6810060000000000    0.3547480000000001    0.7555090000000001 S
   0.6426470000000000    0.8039809999999998    0.0886630000000000 S
   0.1960190000000001    0.8386660000000000    0.4219960000000000 S
   0.1613339999999999    0.3573529999999999    0.7553299999999999 S
   0.3172290000000000    0.1434290000000000    0.2546500000000000 S
   0.8565710000000000    0.1738000000000000    0.5879830000000000 S
   0.8262000000000002    0.6827710000000001    0.9213170000000001 S
   0.3138580000000000    0.6494950000000000    0.2481900000000000 S
   0.3505050000000000    0.6643630000000000    0.5815230000000001 S
   0.3356370000000000    0.6861420000000000    0.9148560000000001 S
   0.8187949999999999    0.6473540000000000    0.2516110000000000 S
   0.3526460000000000    0.1714410000000000    0.5849440000000001 S
   0.8285590000000000    0.1812050000000001    0.9182770000000000 S
   0.8061040000000000    0.1397140000000001    0.2289440000000000 S
   0.8602860000000000    0.6663900000000001    0.5622770000000000 S
   0.3336100000000000    0.1938960000000000    0.8956100000000001 S
