Te4 Mo2
1.0
   1.7793550000000000   -3.0819340000000000    0.0000000000000000
   1.7793550000000000    3.0819340000000000    0.0000000000000000
   0.0000000000000000    0.0000000000000000   15.3466450000000005
Te Mo
4 2
direct
   0.3333330000000000    0.6666669999999998    0.6320800000000000 Te
   0.6666669999999999    0.3333329999999999    0.1320800000000000 Te
   0.6666669999999999    0.3333329999999999    0.3679200000000000 Te
   0.3333330000000000    0.6666669999999998    0.8679200000000000 Te
   0.3333330000000000    0.6666669999999998    0.2500000000000000 Mo
   0.6666669999999999    0.3333329999999999    0.7500000000000000 Mo
