Zn22 S22
1.0
   1.9266430000000001   -3.3370440000000001    0.0000000000000000
   1.9266430000000001    3.3370440000000001    0.0000000000000000
   0.0000000000000000    0.0000000000000000   69.2493020000000001
Zn S
22 22
direct
   0.0000000000000000    0.0000000000000000    0.3636010000000000 Zn
   0.0000000000000000    0.0000000000000000    0.6363960000000000 Zn
   0.3333330000000000    0.6666670000000000    0.8636190000000000 Zn
   0.6666670000000000    0.3333330000000000    0.3181690000000000 Zn
   0.6666670000000000    0.3333330000000000    0.9545160000000000 Zn
   0.6666670000000000    0.3333330000000000    0.0454790000000000 Zn
   0.3333330000000000    0.6666670000000000    0.5454680000000000 Zn
   0.3333330000000000    0.6666670000000000    0.2727190000000000 Zn
   0.3333330000000000    0.6666670000000000    0.1363960000000000 Zn
   0.0000000000000000    0.0000000000000000    0.9090960000000000 Zn
   0.6666670000000000    0.3333330000000000    0.7272920000000000 Zn
   0.6666670000000000    0.3333330000000000    0.5909040000000000 Zn
   0.6666670000000000    0.3333330000000000    0.1818210000000000 Zn
   0.3333330000000000    0.6666670000000000    0.6818210000000000 Zn
   0.0000000000000000    0.0000000000000000    0.0909040000000000 Zn
   0.3333330000000000    0.6666670000000000    0.4090950000000000 Zn
   0.0000000000000000    0.0000000000000000    0.7727170000000000 Zn
   0.6666670000000000    0.3333330000000000    0.4545200000000000 Zn
   0.3333330000000000    0.6666670000000000    0.9999959999999999 Zn
   0.0000000000000000    0.0000000000000000    0.2272960000000000 Zn
   0.6666670000000000    0.3333330000000000    0.8182060000000000 Zn
   0.0000000000000000    0.0000000000000000    0.4999990000000000 Zn
   0.6666670000000000    0.3333330000000000    0.7613510000000000 S
   0.3333330000000000    0.6666670000000000    0.8977060000000000 S
   0.3333330000000000    0.6666670000000000    0.3067990000000000 S
   0.6666670000000000    0.3333330000000000    0.0795360000000000 S
   0.0000000000000000    0.0000000000000000    0.5340930000000000 S
   0.6666670000000000    0.3333330000000000    0.8522770000000000 S
   0.6666670000000000    0.3333330000000000    0.4886060000000000 S
   0.0000000000000000    0.0000000000000000    0.9431770000000002 S
   0.0000000000000000    0.0000000000000000    0.2613780000000000 S
   0.0000000000000000    0.0000000000000000    0.1250010000000000 S
   0.3333330000000000    0.6666670000000000    0.1704750000000000 S
   0.0000000000000000    0.0000000000000000    0.6704730000000000 S
   0.0000000000000000    0.0000000000000000    0.3976990000000000 S
   0.6666670000000000    0.3333330000000000    0.3522380000000000 S
   0.3333330000000000    0.6666670000000000    0.5795360000000001 S
   0.6666670000000000    0.3333330000000000    0.2159070000000000 S
   0.6666670000000000    0.3333330000000000    0.9885810000000000 S
   0.3333330000000000    0.6666670000000000    0.4431780000000000 S
   0.3333330000000000    0.6666670000000000    0.7159070000000000 S
   0.3333330000000000    0.6666670000000000    0.0341170000000000 S
   0.0000000000000000    0.0000000000000000    0.8068310000000000 S
   0.6666670000000000    0.3333330000000000    0.6250010000000000 S
