Gd4 Cl6
1.0
   3.8377305399999999    0.0039247200000000    0.7914785500000000
   1.4495541700000001    7.2631897600000004    2.7187117199999999
   0.0031032600000000    0.0374495700000000    9.7305195399999995
Gd Cl
4 6
direct
   0.4507658500000002    0.7460126599999998    0.3471845300000000 Gd
   0.7311158100000001    0.7899182599999999    0.7574185200000001 Gd
   0.9961006800000001    0.9994847399999999    0.9969966999999998 Gd
   0.1832685200000000    0.5318433100000001    0.1052670700000000 Gd
   0.5367553200000001    0.1321643000000000    0.7830459299999999 Cl
   0.6341629100000002    0.4049822899999999    0.3191847600000000 Cl
   0.9352026600000003    0.5750719599999999    0.5639095200000001 Cl
   0.2384802500000001    0.9665574699999998    0.5375193999999999 Cl
   0.3636676900000000    0.1050851300000000    0.1667045900000000 Cl
   0.8251053200000003    0.4211118800000000    0.9354329799999999 Cl
