Cr18 N24
1.0
   6.7704589999999998  -11.7267799999999998    0.0000000000000000
   6.7704589999999998   11.7267799999999998    0.0000000000000000
   0.0000000000000000    0.0000000000000000    9.4059849999999994
Cr N
18 24
direct
   0.9782250000000000    0.2029140000000000    0.2500000000000000 Cr
   0.7970859999999997    0.7753110000000000    0.2500000000000000 Cr
   0.2246890000000000    0.0217750000000000    0.2500000000000000 Cr
   0.0217750000000000    0.7970860000000001    0.7499999999999999 Cr
   0.2029140000000000    0.2246890000000000    0.7499999999999999 Cr
   0.7753109999999999    0.9782250000000001    0.7499999999999999 Cr
   0.9812619999999999    0.1865809999999999    0.9149210000000001 Cr
   0.8134189999999999    0.7946820000000001    0.9149210000000001 Cr
   0.2053180000000000    0.0187380000000000    0.9149210000000001 Cr
   0.0187379999999999    0.8134190000000001    0.4149210000000000 Cr
   0.1865810000000000    0.2053180000000000    0.4149210000000000 Cr
   0.7946819999999999    0.9812620000000001    0.4149210000000000 Cr
   0.9812619999999999    0.1865809999999999    0.5850790000000000 Cr
   0.8134189999999999    0.7946820000000001    0.5850790000000000 Cr
   0.2053180000000000    0.0187380000000000    0.5850790000000000 Cr
   0.0187379999999999    0.8134190000000001    0.0850790000000000 Cr
   0.1865810000000000    0.2053180000000000    0.0850790000000000 Cr
   0.7946819999999999    0.9812620000000001    0.0850790000000000 Cr
   0.9998740000000000    0.3277370000000001    0.2500000000000000 N
   0.6722630000000001    0.6721370000000001    0.2500000000000000 N
   0.3278630000000000    0.0001260000000000    0.2500000000000000 N
   0.0001260000000000    0.6722630000000002    0.7499999999999999 N
   0.3277370000000001    0.3278630000000001    0.7499999999999999 N
   0.6721369999999998    0.9998740000000002    0.7499999999999999 N
   0.9021649999999999    0.1321909999999999    0.4190500000000000 N
   0.8678089999999999    0.7699739999999999    0.4190500000000000 N
   0.2300260000000000    0.0978350000000000    0.4190500000000000 N
   0.0978349999999999    0.8678090000000003    0.9190499999999999 N
   0.1321910000000000    0.2300260000000001    0.9190499999999999 N
   0.7699739999999999    0.9021650000000001    0.9190499999999999 N
   0.9021649999999999    0.1321909999999999    0.0809500000000000 N
   0.8678089999999999    0.7699739999999999    0.0809500000000000 N
   0.2300260000000000    0.0978350000000000    0.0809500000000000 N
   0.0978349999999999    0.8678090000000003    0.5809500000000000 N
   0.1321910000000000    0.2300260000000001    0.5809500000000000 N
   0.7699739999999999    0.9021650000000001    0.5809500000000000 N
   0.9061230000000000    0.1272429999999999    0.7499999999999999 N
   0.8727569999999999    0.7788800000000001    0.7499999999999999 N
   0.2211200000000000    0.0938770000000000    0.7499999999999999 N
   0.0938770000000000    0.8727570000000001    0.2500000000000000 N
   0.1272430000000000    0.2211200000000001    0.2500000000000000 N
   0.7788799999999998    0.9061230000000000    0.2500000000000000 N
