V4 Zn5
1.0
  -4.4560149999999998    4.4560149999999998    1.5914759999999999
   4.4560149999999998   -4.4560149999999998    1.5914759999999999
   4.4560149999999998    4.4560149999999998   -1.5914759999999999
V Zn
4 5
direct
   0.0000000000000000    0.3443680000000000    0.3443680000000000 V
   0.0000000000000000    0.6556320000000000    0.6556320000000000 V
   0.6556320000000000    0.0000000000000000    0.6556320000000000 V
   0.3443680000000000    0.0000000000000000    0.3443680000000000 V
   0.0000000000000000    0.0000000000000000    0.0000000000000000 Zn
   0.3297150000000000    0.3297150000000000    0.6594300000000000 Zn
   0.6702850000000001    0.6702850000000001    0.3405700000000000 Zn
   0.6702850000000001    0.3297150000000001    0.0000000000000000 Zn
   0.3297150000000001    0.6702850000000001   -0.0000000000000000 Zn
