Cd2 Te2
1.0
   2.3421509999999999   -4.0567250000000001    0.0000000000000000
   2.3421509999999999    4.0567250000000001    0.0000000000000000
   0.0000000000000000    0.0000000000000000    7.6736950000000004
Cd Te
2 2
direct
   0.3333330000000000    0.6666670000000000    0.0000920000000000 Cd
   0.6666670000000000    0.3333330000000000    0.5000920000000000 Cd
   0.3333330000000000    0.6666670000000000    0.3749080000000000 Te
   0.6666670000000000    0.3333330000000000    0.8749080000000000 Te
