Zr30 Ir18
1.0
   3.9951010000000000   -6.9197179999999996    0.0000000000000000
   3.9951010000000000    6.9197179999999996    0.0000000000000000
   0.0000000000000000    0.0000000000000000   17.2255380000000002
Zr Ir
30 18
direct
   0.2377190000000000    0.2310029999999999    0.8263700000000000 Zr
   0.7689969999999999    0.0067159999999999    0.1597040000000000 Zr
   0.9932839999999998    0.7622809999999999    0.4930370000000001 Zr
   0.0067160000000000    0.2377190000000000    0.9930369999999999 Zr
   0.7622810000000000    0.9932839999999997    0.8402960000000000 Zr
   0.7622810000000000    0.7689969999999998    0.3263700000000000 Zr
   0.2310030000000000    0.9932839999999998    0.6597040000000000 Zr
   0.7689969999999999    0.7622809999999999    0.0069630000000000 Zr
   0.9932839999999999    0.2310029999999998    0.6736300000000000 Zr
   0.0067160000000000    0.7689969999999998    0.1736300000000000 Zr
   0.2310030000000000    0.2377190000000000    0.5069630000000001 Zr
   0.2377190000000000    0.0067160000000000    0.3402960000000000 Zr
   0.3461369999999999    0.6922739999999997    0.7500000000000000 Zr
   0.6538630000000000    0.3461369999999999    0.9166670000000000 Zr
   0.6922739999999998    0.3461369999999998    0.5833330000000000 Zr
   0.3077260000000000    0.6538629999999999    0.0833330000000000 Zr
   0.3461370000000000    0.6538629999999999    0.4166670000000000 Zr
   0.6538630000000000    0.3077259999999999    0.2500000000000000 Zr
   0.2481770000000000   -0.0000000000000000    0.0000000000000000 Zr
   0.2481770000000000    0.2481770000000000    0.1666670000000000 Zr
   0.0000000000000001    0.7518229999999999    0.8333330000000000 Zr
   0.0000000000000000    0.2481770000000000    0.3333330000000000 Zr
   0.7518230000000000    0.7518229999999998    0.6666670000000000 Zr
   0.7518230000000000   -0.0000000000000001    0.5000000000000000 Zr
   0.3741690000000000    0.7483379999999998    0.2500000000000000 Zr
   0.6258310000000000    0.3741689999999999    0.4166670000000000 Zr
   0.7483379999999999    0.3741689999999999    0.0833330000000000 Zr
   0.2516620000000001    0.6258309999999999    0.5833330000000000 Zr
   0.3741690000000000    0.6258309999999999    0.9166670000000000 Zr
   0.6258310000000000    0.2516619999999999    0.7500000000000000 Zr
   0.4131449999999999    0.3939309999999999    0.0232260000000000 Ir
   0.6060690000000000    0.0192139999999999    0.3565590000000000 Ir
   0.9807859999999999    0.5868549999999998    0.6898919999999999 Ir
   0.0192140000000000    0.4131449999999999    0.1898920000000000 Ir
   0.5868549999999999    0.9807859999999998    0.6434410000000000 Ir
   0.5868549999999999    0.6060689999999999    0.5232260000000000 Ir
   0.3939309999999999    0.9807859999999999    0.8565590000000000 Ir
   0.6060690000000000    0.5868549999999998    0.8101080000000001 Ir
   0.9807860000000000    0.3939309999999998    0.4767740000000000 Ir
   0.0192140000000000    0.6060689999999999    0.9767740000000001 Ir
   0.3939310000000000    0.4131449999999998    0.3101080000000000 Ir
   0.4131449999999999    0.0192140000000000    0.1434410000000000 Ir
   0.3854430000000000   -0.0000000000000000    0.5000000000000000 Ir
   0.3854430000000000    0.3854429999999999    0.6666670000000000 Ir
  -0.0000000000000000    0.6145570000000000    0.3333330000000000 Ir
   0.0000000000000000    0.3854429999999999    0.8333330000000000 Ir
   0.6145570000000000    0.6145569999999999    0.1666670000000000 Ir
   0.6145570000000000   -0.0000000000000001    0.0000000000000000 Ir
