Ni23 Te42
1.0
   8.5735930000000007    0.0000000000000000    0.0000000000000000
  -0.5749649999999999    8.5804290000000005    0.0000000000000000
  -1.6872579999999999   -1.2167980000000000   19.9073630000000001
Ni Te
23 42
direct
   0.5727590000000000    0.0026470000000000    0.7151270000000000 Ni
   0.2358560000000000    0.6668460000000000    0.7151620000000000 Ni
   0.0000000000000000    0.0000000000000000    0.0000000000000000 Ni
   0.9548719999999999    0.6647880000000000    0.8564789999999999 Ni
   0.7105949999999999    0.0024000000000000    0.1414310000000000 Ni
   0.0966860000000000    0.1674130000000000    0.7861470000000000 Ni
   0.9022270000000000    0.3363440000000000    0.7127869999999998 Ni
   0.6662790000000000    0.6678020000000001    0.9987609999999999 Ni
   0.4272410000000000    0.9973530000000000    0.2848730000000000 Ni
   0.6192069999999998    0.3295139999999999    0.8566499999999999 Ni
   0.3807930000000000    0.6704860000000000    0.1433500000000000 Ni
   0.1425950000000000    0.9967340000000001    0.4297320000000000 Ni
   0.3337210000000000    0.3321980000000000    0.0012390000000000 Ni
   0.0977730000000000    0.6636560000000000    0.2872130000000000 Ni
   0.8574049999999999    0.0032660000000000    0.5702680000000000 Ni
   0.2894050000000001    0.9976000000000002    0.8585689999999999 Ni
   0.0451280000000000    0.3352120000000001    0.1435210000000000 Ni
   0.8109270000000000    0.6670920000000000    0.4300560000000000 Ni
   0.7641440000000000    0.3331540000000000    0.2848380000000000 Ni
   0.5235520000000000    0.6658300000000001    0.5719420000000000 Ni
   0.9033140000000001    0.8325870000000001    0.2138530000000000 Ni
   0.4764480000000000    0.3341700000000001    0.4280579999999999 Ni
   0.1890730000000000    0.3329080000000000    0.5699439999999999 Ni
   0.5381209999999998    0.6964790000000000    0.7024190000000000 Te
   0.2548260000000000    0.6909120000000000    0.8458610000000000 Te
   0.9656830000000000    0.6945600000000000    0.9876019999999999 Te
   0.2038620000000000    0.3651690000000001    0.6999649999999999 Te
   0.5571570000000000    0.9716490000000001    0.5838870000000000 Te
   0.9169059999999999    0.3633480000000001    0.8448560000000001 Te
   0.6776730000000000    0.6940240000000000    0.1285560000000000 Te
   0.2743250000000000    0.9688210000000002    0.7265570000000000 Te
   0.8685619999999999    0.0294030000000000    0.7003640000000000 Te
   0.6317839999999999    0.3624150000000000    0.9884330000000000 Te
   0.3984889999999999    0.6934370000000001    0.2739230000000000 Te
   0.2238650000000000    0.6374370000000000    0.5841360000000000 Te
   0.9872730000000000    0.9668360000000000    0.8707290000000000 Te
   0.5889390000000000    0.0259100000000000    0.8457240000000000 Te
   0.3466500000000001    0.3622700000000000    0.1317670000000000 Te
   0.9358790000000000    0.6403530000000000    0.7255380000000000 Te
   0.1119050000000000    0.6924760000000001    0.4177160000000000 Te
   0.6972619999999999    0.9723680000000000    0.0109260000000000 Te
   0.3027380000000001    0.0276320000000000    0.9890740000000000 Te
   0.0641210000000000    0.3596470000000000    0.2744620000000000 Te
   0.6533500000000000    0.6377300000000001    0.8682330000000000 Te
   0.8880949999999999    0.3075240000000001    0.5822839999999999 Te
   0.8228449999999999    0.6953360000000000    0.5603310000000000 Te
   0.4110610000000000    0.9740900000000001    0.1542760000000000 Te
   0.0127270000000000    0.0331640000000000    0.1292710000000000 Te
   0.7761350000000000    0.3625630000000001    0.4158640000000000 Te
   0.3682160000000000    0.6375850000000001    0.0115670000000000 Te
   0.6015110000000001    0.3065630000000000    0.7260770000000000 Te
   0.1314380000000000    0.9705970000000000    0.2996360000000000 Te
   0.7256750000000000    0.0311790000000000    0.2734429999999999 Te
   0.4899570000000000    0.3598510000000000    0.5587250000000000 Te
   0.0830940000000000    0.6366520000000001    0.1551440000000000 Te
   0.3223269999999999    0.3059760000000000    0.8714440000000000 Te
   0.8429950000000000    0.9712470000000001    0.4398940000000000 Te
   0.4428430000000000    0.0283510000000000    0.4161130000000000 Te
   0.0343170000000000    0.3054400000000000    0.0123980000000000 Te
   0.7961380000000000    0.6348310000000000    0.3000350000000000 Te
   0.1570050000000000    0.0287530000000000    0.5601060000000000 Te
   0.7451740000000001    0.3090879999999999    0.1541390000000000 Te
   0.5100429999999999    0.6401490000000000    0.4412749999999999 Te
   0.4618790000000000    0.3035210000000000    0.2975810000000000 Te
   0.1771550000000000    0.3046640000000000    0.4396690000000000 Te
