Mn4 B2
1.0
  -2.5332029999999999    2.5332029999999999    2.0519449999999999
   2.5332029999999999   -2.5332029999999999    2.0519449999999999
   2.5332029999999999    2.5332029999999999   -2.0519449999999999
Mn B
4 2
direct
   0.1586009999999999    0.6586010000000000    0.8172020000000000 Mn
   0.8413990000000000    0.3413990000000000    0.1827980000000000 Mn
   0.3413990000000000    0.1586010000000000    0.5000000000000000 Mn
   0.6586009999999999    0.8413990000000000    0.4999999999999999 Mn
   0.2500000000000000    0.2500000000000000    0.0000000000000000 B
   0.7500000000000000    0.7500000000000000    0.0000000000000000 B
