Mo30 Se38
1.0
   4.8146589999999998   -8.3392339999999994    0.0000000000000000
   4.8146589999999998    8.3392339999999994    0.0000000000000000
   0.0000000000000000    0.0000000000000000   19.8519959999999998
Mo Se
30 38
direct
   0.6874320000000000    0.5044709999999999    0.1334350000000000 Mo
   0.1653700000000000    0.5120810000000000    0.7500000000000000 Mo
   0.0210110000000000    0.1710500000000000    0.5596520000000000 Mo
   0.8289500000000000    0.8499610000000001    0.5596520000000000 Mo
   0.6874320000000000    0.5044709999999999    0.3665650000000000 Mo
   0.8170390000000000    0.3125680000000001    0.3665650000000000 Mo
   0.4955290000000000    0.1829610000000000    0.1334350000000000 Mo
   0.3125680000000000    0.4955290000000001    0.6334350000000000 Mo
   0.5120810000000000    0.3467110000000000    0.2500000000000000 Mo
   0.1500390000000000    0.9789890000000001    0.5596520000000000 Mo
   0.4879190000000000    0.6532890000000000    0.7500000000000000 Mo
   0.6532890000000000    0.1653700000000000    0.2500000000000000 Mo
   0.8289500000000000    0.8499610000000001    0.9403480000000000 Mo
   0.4955290000000000    0.1829610000000000    0.3665650000000000 Mo
   0.8499609999999999    0.0210109999999999    0.4403480000000001 Mo
   0.1829610000000001    0.6874320000000002    0.8665650000000001 Mo
   0.8499609999999999    0.0210109999999999    0.0596520000000000 Mo
   0.1829610000000001    0.6874320000000002    0.6334350000000000 Mo
   0.9789890000000001    0.8289500000000001    0.4403480000000001 Mo
   0.5044710000000000    0.8170390000000000    0.8665650000000001 Mo
   0.1710500000000000    0.1500390000000000    0.4403480000000001 Mo
   0.1500390000000000    0.9789890000000001    0.9403480000000000 Mo
   0.3125680000000000    0.4955290000000001    0.8665650000000001 Mo
   0.0210110000000000    0.1710500000000000    0.9403480000000000 Mo
   0.8170390000000000    0.3125680000000001    0.1334350000000000 Mo
   0.9789890000000001    0.8289500000000001    0.0596520000000000 Mo
   0.5044710000000000    0.8170390000000000    0.6334350000000000 Mo
   0.3467110000000001    0.8346300000000001    0.7500000000000000 Mo
   0.1710500000000000    0.1500390000000000    0.0596520000000000 Mo
   0.8346300000000000    0.4879190000000000    0.2500000000000000 Mo
   0.9969290000000001    0.6244010000000001    0.3561090000000000 Se
   0.0353890000000000    0.3270700000000000    0.0480590000000000 Se
   0.3725280000000001    0.9969290000000001    0.6438910000000001 Se
   0.6244010000000000    0.6274720000000000    0.8561090000000001 Se
   0.0000000000000000    0.0000000000000000    0.3388130000000000 Se
   0.3420720000000000    0.0381200000000000    0.2500000000000000 Se
   0.3333330000000000    0.6666670000000000    0.5318830000000000 Se
   0.0000000000000000    0.0000000000000000    0.8388130000000000 Se
   0.3270700000000001    0.2916810000000001    0.5480590000000000 Se
   0.3039520000000001    0.3420720000000000    0.7500000000000000 Se
   0.6666670000000000    0.3333330000000000    0.4681170000000001 Se
   0.2916810000000001    0.9646110000000000    0.4519410000000000 Se
   0.9646110000000002    0.6729300000000001    0.5480590000000000 Se
   0.6729300000000000    0.7083190000000001    0.0480590000000000 Se
   0.0381200000000001    0.6960480000000000    0.7500000000000000 Se
   0.7083190000000000    0.0353890000000000    0.5480590000000000 Se
   0.6729300000000000    0.7083190000000001    0.4519410000000000 Se
   0.6274720000000000    0.0030710000000000    0.1438910000000000 Se
   0.0030710000000000    0.3755990000000000    0.6438910000000001 Se
   0.0030710000000000    0.3755990000000000    0.8561090000000001 Se
   0.9618800000000000    0.3039520000000001    0.2500000000000000 Se
   0.7083190000000000    0.0353890000000000    0.9519410000000001 Se
   0.0353890000000000    0.3270700000000000    0.4519410000000000 Se
   0.6666670000000000    0.3333330000000000    0.0318830000000000 Se
   0.6274720000000000    0.0030710000000000    0.3561090000000000 Se
   0.3725280000000001    0.9969290000000001    0.8561090000000001 Se
   0.9969290000000001    0.6244010000000001    0.1438910000000000 Se
   0.9646110000000002    0.6729300000000001    0.9519410000000001 Se
   0.3755990000000001    0.3725280000000000    0.3561090000000000 Se
   0.6579280000000000    0.9618800000000000    0.7500000000000000 Se
   0.3270700000000001    0.2916810000000001    0.9519410000000001 Se
   0.0000000000000000    0.0000000000000000    0.6611870000000001 Se
   0.3333330000000000    0.6666670000000000    0.9681170000000001 Se
   0.2916810000000001    0.9646110000000000    0.0480590000000000 Se
   0.6960480000000000    0.6579280000000001    0.2500000000000000 Se
   0.6244010000000000    0.6274720000000000    0.6438910000000001 Se
   0.0000000000000000    0.0000000000000000    0.1611870000000000 Se
   0.3755990000000001    0.3725280000000000    0.1438910000000000 Se
