Zr10 Ga8
1.0
   4.2091580000000004   -7.2904749999999998    0.0000000000000000
   4.2091580000000004    7.2904749999999998    0.0000000000000000
   0.0000000000000000    0.0000000000000000    5.7661189999999998
Zr Ga
10 8
direct
   0.6666670000000000    0.3333329999999999    0.0000000000000000 Zr
   0.3333330000000000    0.6666669999999999    0.0000000000000000 Zr
   0.3333330000000000    0.6666669999999999    0.5000000000000000 Zr
   0.6666670000000000    0.3333329999999999    0.5000000000000000 Zr
   0.7166140000000000    0.7166139999999999    0.7500000000000000 Zr
   0.2833860000000000   -0.0000000000000000    0.7500000000000000 Zr
   0.0000000000000000    0.2833860000000000    0.7500000000000000 Zr
   0.2833860000000000    0.2833860000000000    0.2500000000000000 Zr
   0.7166140000000000   -0.0000000000000001    0.2500000000000000 Zr
   0.0000000000000000    0.7166139999999999    0.2500000000000000 Zr
   0.0000000000000000    0.0000000000000000    0.0000000000000000 Ga
   0.0000000000000000    0.0000000000000000    0.5000000000000000 Ga
   0.3764339999999999    0.3764339999999999    0.7500000000000000 Ga
   0.6235660000000000   -0.0000000000000001    0.7500000000000000 Ga
   0.0000000000000000    0.6235659999999998    0.7500000000000000 Ga
   0.6235660000000000    0.6235659999999998    0.2500000000000000 Ga
   0.3764339999999999   -0.0000000000000000    0.2500000000000000 Ga
  -0.0000000000000000    0.3764339999999999    0.2500000000000000 Ga
