K4 Zr2
1.0
   3.2821880000000001   -5.6849160000000003    0.0000000000000000
   3.2821880000000001    5.6849160000000003    0.0000000000000000
   0.0000000000000000    0.0000000000000000    7.8650479999999998
K Zr
4 2
direct
   0.6666669999999999    0.3333329999999999    0.2500000000000000 K
   0.3333329999999998    0.6666670000000000    0.7499999999999999 K
   0.0000000000000000    0.0000000000000000    0.4999999999999999 K
   0.0000000000000000    0.0000000000000000    0.0000000000000000 K
   0.3333329999999998    0.6666670000000000    0.2500000000000000 Zr
   0.6666669999999999    0.3333329999999999    0.7499999999999999 Zr
