Cr4 O8
1.0
   4.4713430000000001   -0.0000740000000000    0.0000060000000000
  -0.0000740000000000    4.4713430000000001    0.0000030000000000
   0.0000090000000000    0.0000050000000000    5.9903519999999997
Cr O
4 8
direct
   0.5000000000000000    0.5000000000000000    0.7442350000000001 Cr
   0.0000020000000000    0.0000020000000000    0.5057640000000000 Cr
   0.5000000000000001    0.4999999999999999    0.2442140000000000 Cr
   0.9999990000000001    0.9999989999999999    0.0057840000000000 Cr
   0.2017060000000000    0.7982939999999998    0.2518170000000000 O
   0.2017080000000000    0.7982909999999999    0.7518049999999999 O
   0.7982939999999999    0.2017060000000000    0.2518170000000000 O
   0.7982909999999999    0.2017090000000000    0.7518049999999999 O
   0.2982980000000000    0.2982980000000000    0.9981840000000002 O
   0.2982970000000000    0.2982970000000000    0.4981940000000000 O
   0.7017020000000000    0.7017020000000000    0.9981860000000000 O
   0.7017030000000001    0.7017030000000000    0.4981960000000001 O
