In18 Au42
1.0
   6.2546900000000001  -10.8334410000000005    0.0000000000000000
   6.2546900000000001   10.8334410000000005    0.0000000000000000
   0.0000000000000000    0.0000000000000000    8.7497330000000009
In Au
18 42
direct
   0.6907500000000000    0.1658099999999999    0.4608980000000000 In
   0.5249400000000000    0.6907500000000000    0.5391020000000000 In
   0.1410410000000000    0.6431010000000001    0.0412360000000000 In
   0.4979400000000000    0.1410410000000000    0.9587640000000001 In
   0.8341900000000000    0.5249400000000000    0.4608980000000000 In
   0.8335519999999998    0.8129489999999999    0.7513400000000000 In
   0.0206030000000000    0.8335520000000000    0.2486600000000000 In
   0.3568990000000000    0.4979399999999999    0.0412360000000000 In
   0.8129490000000000    0.9793970000000000    0.2486600000000000 In
   0.6431010000000000    0.5020600000000001    0.9587640000000001 In
   0.1664480000000000    0.1870510000000000    0.2486600000000000 In
   0.1870510000000000    0.0206030000000000    0.7513400000000000 In
   0.1658100000000000    0.4750600000000000    0.5391020000000000 In
   0.3092500000000000    0.8341900000000000    0.5391020000000000 In
   0.8589590000000000    0.3568990000000001    0.9587640000000001 In
   0.9793970000000000    0.1664480000000000    0.7513400000000000 In
   0.5020600000000000    0.8589590000000000    0.0412360000000000 In
   0.4750600000000000    0.3092500000000001    0.4608980000000000 In
   0.2230000000000000    0.2298390000000000    0.5739720000000000 Au
   0.9931610000000000    0.2230000000000001    0.4260280000000000 Au
   0.3552860000000000    0.4416280000000000    0.3657830000000001 Au
   0.2298390000000000    0.0068390000000000    0.4260280000000000 Au
   0.5294830000000000    0.8877550000000000    0.7045000000000000 Au
   0.7940510000000001    0.7571310000000000    0.0845580000000000 Au
   0.8931650000000001    0.5783370000000000    0.1257560000000000 Au
   0.3333330000000000    0.6666670000000000    0.3248470000000000 Au
   0.3333330000000000    0.6666670000000000    0.8338810000000000 Au
   0.9136580000000000    0.3552860000000000    0.6342170000000000 Au
   0.8626490000000001    0.5607750000000001    0.7910810000000000 Au
   0.4416280000000000    0.0863420000000000    0.6342170000000000 Au
   0.3018739999999999    0.8626490000000000    0.2089190000000000 Au
   0.4216630000000000    0.3148280000000000    0.1257560000000000 Au
   0.1068350000000000    0.4216630000000000    0.8742440000000000 Au
   0.7769999999999999    0.7701609999999999    0.4260280000000000 Au
   0.6851720000000000    0.1068350000000000    0.1257560000000000 Au
   0.9630800000000000    0.2059490000000000    0.0845580000000000 Au
   0.1373510000000000    0.4392250000000000    0.2089190000000000 Au
   0.0863420000000000    0.6447140000000000    0.3657830000000001 Au
   0.5583720000000000    0.9136580000000000    0.3657830000000001 Au
   0.6417280000000000    0.5294830000000000    0.2955000000000000 Au
   0.6981260000000000    0.1373510000000000    0.7910810000000000 Au
   0.1122450000000000    0.6417280000000000    0.7045000000000000 Au
   0.0369200000000000    0.7940510000000001    0.9154420000000000 Au
   0.6666670000000000    0.3333330000000000    0.1661190000000000 Au
   0.7571310000000000    0.9630799999999999    0.9154420000000000 Au
   0.0068390000000000    0.7770000000000000    0.5739720000000000 Au
   0.7701610000000000    0.9931609999999998    0.5739720000000000 Au
   0.6666670000000000    0.3333330000000000    0.6751530000000000 Au
   0.4705170000000000    0.1122450000000000    0.2955000000000000 Au
   0.0000000000000000    0.0000000000000000    0.0000000000000000 Au
   0.3148280000000001    0.8931650000000001    0.8742440000000000 Au
   0.5783370000000000    0.6851720000000000    0.8742440000000000 Au
   0.8877550000000000    0.3582720000000000    0.2955000000000000 Au
   0.6447139999999999    0.5583720000000000    0.6342170000000000 Au
   0.3582720000000000    0.4705170000000000    0.7045000000000000 Au
   0.4392250000000000    0.3018740000000000    0.7910810000000000 Au
   0.5607750000000000    0.6981260000000000    0.2089190000000000 Au
   0.2059490000000000    0.2428690000000000    0.9154420000000000 Au
   0.2428690000000000    0.0369200000000000    0.0845580000000000 Au
   0.0000000000000000    0.0000000000000000    0.5000000000000000 Au
