In8 Pt12
1.0
   2.8325109999999998   -4.9060530000000000    0.0000000000000000
   2.8325109999999998    4.9060530000000000    0.0000000000000000
   0.0000000000000000    0.0000000000000000   13.9671190000000003
In Pt
8 12
direct
   0.0000000000000000    0.0000000000000000    0.2500000000000000 In
   0.0000000000000000    0.0000000000000000    0.7500000000000001 In
   0.3333330000000000    0.6666670000000000    0.2500000000000000 In
   0.6666670000000000    0.3333330000000000    0.7500000000000001 In
   0.3333330000000000    0.6666670000000000    0.5868200000000001 In
   0.6666670000000000    0.3333330000000000    0.0868200000000000 In
   0.6666670000000000    0.3333330000000000    0.4131800000000000 In
   0.3333330000000000    0.6666670000000000    0.9131800000000001 In
   0.1656930000000001    0.3313860000000001    0.4104160000000000 Pt
   0.1656930000000000    0.8343070000000000    0.4104160000000000 Pt
   0.6686140000000002    0.8343070000000000    0.4104160000000000 Pt
   0.8343070000000000    0.1656930000000000    0.9104160000000001 Pt
   0.3313860000000001    0.1656930000000001    0.9104160000000001 Pt
   0.8343070000000000    0.6686140000000002    0.9104160000000001 Pt
   0.8343070000000000    0.6686140000000002    0.5895840000000000 Pt
   0.8343070000000000    0.1656930000000000    0.5895840000000000 Pt
   0.3313860000000001    0.1656930000000001    0.5895840000000000 Pt
   0.1656930000000000    0.8343070000000000    0.0895840000000000 Pt
   0.6686140000000002    0.8343070000000000    0.0895840000000000 Pt
   0.1656930000000001    0.3313860000000001    0.0895840000000000 Pt
