Na4 Cl2
1.0
  -1.9629410000000000    3.5489839999999999    6.8775750000000002
   1.9629410000000000   -3.5489839999999999    6.8775750000000002
   1.9629410000000000    3.5489839999999999   -6.8775750000000002
Na Cl
4 2
direct
   0.1571510000000000    0.6441130000000002    0.5130390000000000 Na
   0.3689260000000000    0.3558870000000001    0.0130390000000000 Na
   0.8428490000000001    0.3558870000000000    0.4869610000000000 Na
   0.6310740000000000    0.6441130000000000    0.9869610000000000 Na
   0.1451510000000001    0.8951510000000000    0.2499999999999999 Cl
   0.8548490000000000    0.1048489999999999    0.7500000000000000 Cl
