Y5 Mg1
1.0
   1.7952269999999999   -9.2967879999999994    0.0000000000000000
   1.7952269999999999    9.2967879999999994    0.0000000000000000
   0.0000000000000000    0.0000000000000000    5.6329700000000003
Y Mg
5 1
direct
   0.0000069999999999    0.9999930000000000    0.0000000000000000 Y
   0.3302720000000000    0.6697280000000000    0.0000000000000000 Y
   0.6676799999999999    0.3323199999999999    0.0000000000000000 Y
   0.1130019999999999    0.8869980000000000    0.5000000000000000 Y
   0.4452039999999998    0.5547960000000000    0.5000000000000000 Y
   0.7771679999999999    0.2228320000000001    0.5000000000000000 Mg
