W8 O24
1.0
   7.5677269999999996    0.0000000000000000    0.0000000000000000
   0.0924900000000000    7.6585530000000004    0.0000000000000000
   0.0910920000000000    0.1240330000000000    7.6807770000000000
W O
8 24
direct
   0.7477409999999999    0.0156480000000000    0.2671500000000000 W
   0.2522590000000000    0.9843519999999999    0.7328500000000000 W
   0.7502020000000001    0.5166999999999999    0.2334180000000000 W
   0.2497980000000000    0.4833000000000000    0.7665820000000000 W
   0.7522229999999999    0.0183100000000000    0.7653840000000000 W
   0.2477770000000000    0.9816900000000000    0.2346160000000000 W
   0.7501469999999999    0.5188469999999999    0.7349950000000000 W
   0.2498530000000000    0.4811529999999999    0.2650050000000000 W
   0.9998569999999999    0.0296760000000000    0.2134950000000000 O
   0.0001430000000000    0.9703239999999999    0.7865050000000000 O
   0.4985510000000000    0.5304450000000001    0.2156480000000000 O
   0.5014489999999999    0.4695549999999999    0.7843520000000000 O
   0.9980249999999998    0.4676989999999999    0.2845340000000000 O
   0.0019750000000000    0.5323010000000000    0.7154660000000000 O
   0.5001120000000000    0.9686479999999998    0.2846910000000000 O
   0.4998880000000001    0.0313520000000000    0.7153090000000000 O
   0.7192910000000000    0.2572900000000000    0.2752450000000000 O
   0.2807090000000000    0.7427099999999999    0.7247550000000000 O
   0.7816340000000001    0.7574689999999999    0.2240190000000000 O
   0.2183660000000000    0.2425310000000000    0.7759810000000000 O
   0.7811660000000000    0.2577970000000000    0.7252110000000001 O
   0.2188340000000000    0.7422029999999998    0.2747890000000000 O
   0.7184080000000000    0.7577239999999997    0.7754870000000000 O
   0.2815920000000000    0.2422760000000000    0.2245130000000000 O
   0.7145280000000001    0.0356030000000000    0.0032850000000000 O
   0.2854720000000000    0.9643969999999998    0.9967150000000000 O
   0.7160990000000000    0.5351070000000000    0.4969620000000000 O
   0.2839010000000000    0.4648930000000000    0.5030380000000000 O
   0.7849370000000000    0.4846679999999999    0.9963310000000000 O
   0.2150630000000000    0.5153319999999999    0.0036690000000000 O
   0.7859490000000000    0.9847989999999999    0.5035580000000000 O
   0.2140510000000000    0.0152010000000000    0.4964420000000000 O
