Mg10 Si12
1.0
   4.9275099999999998    0.0000000000000000    0.0000000000000000
   1.0310040000000000    6.3903179999999997    0.0000000000000000
   2.2899929999999999    0.2026780000000000   13.6568349999999992
Mg Si
10 12
direct
   0.8144109999999999    0.0000620000000000    0.0014810000000000 Mg
   0.9434600000000000    0.5677500000000000    0.5278119999999999 Mg
   0.2128589999999999    0.1310030000000000    0.4016510000000000 Mg
   0.9482480000000000    0.0704150000000000    0.6337549999999998 Mg
   0.4128779999999999    0.7983230000000000    0.9077460000000001 Mg
   0.1606270000000000    0.2884550000000000    0.0809860000000000 Mg
   0.5089510000000002    0.6248099999999999    0.3662700000000000 Mg
   0.4420400000000000    0.3182530000000000    0.5743630000000000 Mg
   0.5011080000000000    0.3033140000000000    0.8637429999999999 Mg
   0.3431870000000001    0.7913129999999999    0.1448400000000000 Mg
   0.6292420000000000    0.4529390000000000    0.0397990000000000 Si
   0.9516070000000000    0.6081720000000000    0.9186629999999999 Si
   0.3886300000000000    0.7574399999999999    0.5632840000000000 Si
   0.6996380000000001    0.9704300000000000    0.4678380000000000 Si
   0.7713220000000000    0.9886210000000001    0.1968710000000000 Si
   0.0566799999999999    0.1503570000000000    0.8233279999999999 Si
   0.5314630000000001    0.6037070000000001    0.7169520000000000 Si
   0.0787050000000000    0.4378770000000000    0.2743380000000000 Si
   0.6457820000000000    0.3601320000000000    0.2149190000000000 Si
   0.0269780000000000    0.4973669999999999    0.7485729999999999 Si
   0.4382719999999998    0.9787269999999999    0.7125770000000000 Si
   0.9938050000000000    0.8043209999999998    0.3237309999999999 Si
