Yb12 Se16
1.0
   4.2916239999999997    0.0000000000000000    0.0000000000000000
   0.0000000000000000   12.0478749999999994    0.0000000000000000
   0.0000000000000000    0.0000000000000000   14.7523049999999998
Yb Se
12 16
direct
   0.2500000000000000    0.1193350000000000    0.0976890000000000 Yb
   0.7500000000000001    0.8806650000000000    0.9023110000000000 Yb
   0.2500000000000000    0.3806650000000000    0.5976890000000000 Yb
   0.7500000000000001    0.6193350000000000    0.4023110000000000 Yb
   0.7500000000000001    0.4551320000000000    0.1055090000000000 Yb
   0.2500000000000000    0.5448680000000000    0.8944910000000000 Yb
   0.7500000000000001    0.0448680000000000    0.6055090000000000 Yb
   0.2500000000000000    0.9551320000000000    0.3944910000000000 Yb
   0.2500000000000000    0.2998320000000000    0.3620460000000000 Yb
   0.7500000000000001    0.7001680000000000    0.6379540000000000 Yb
   0.2500000000000000    0.2001680000000000    0.8620460000000000 Yb
   0.7500000000000001    0.7998320000000000    0.1379540000000000 Yb
   0.7500000000000001    0.2254840000000000    0.2260220000000000 Se
   0.2500000000000000    0.7745160000000001    0.7739780000000001 Se
   0.7500000000000001    0.2745160000000000    0.7260219999999999 Se
   0.2500000000000000    0.7254840000000001    0.2739780000000000 Se
   0.2500000000000000    0.5230610000000001    0.2450540000000000 Se
   0.7500000000000001    0.4769390000000000    0.7549460000000000 Se
   0.2500000000000000    0.9769390000000000    0.7450540000000000 Se
   0.7500000000000001    0.0230610000000000    0.2549460000000000 Se
   0.7500000000000001    0.3897710000000000    0.4633540000000000 Se
   0.2500000000000000    0.6102290000000001    0.5366460000000000 Se
   0.7500000000000001    0.1102290000000000    0.9633540000000000 Se
   0.2500000000000000    0.8897710000000001    0.0366460000000000 Se
   0.2500000000000000    0.1440330000000000    0.5092790000000000 Se
   0.7500000000000001    0.8559670000000000    0.4907210000000000 Se
   0.2500000000000000    0.3559670000000000    0.0092790000000000 Se
   0.7500000000000001    0.6440330000000000    0.9907210000000000 Se
