Fe16 O32
1.0
   2.9847549999999998    5.0452320000000004    0.0000000000000000
  -2.9847549999999998    5.0452320000000004    0.0000000000000000
   0.0000000000000000    3.5045519999999999   19.1465199999999989
Fe O
16 32
direct
   0.6340530000000000    0.1178890000000000    0.1248410000000000 Fe
   0.2470960000000000    0.2470960000000000    0.2544110000000000 Fe
   0.1178890000000000    0.6340530000000000    0.1248410000000000 Fe
   0.1499670000000000    0.1499670000000000    0.5350919999999999 Fe
   0.8706100000000001    0.3721770000000000    0.3781880000000000 Fe
   0.6035930000000000    0.6035930000000000    0.2209690000000000 Fe
   0.4010630000000001    0.4010630000000001    0.7791480000000000 Fe
   0.3721770000000000    0.8706100000000001    0.3781880000000000 Fe
   0.1226200000000000    0.6249819999999999    0.6241860000000000 Fe
   0.8510319999999999    0.8510319999999999    0.4655830000000000 Fe
   0.6249819999999999    0.1226200000000000    0.6241860000000000 Fe
   0.8741930000000001    0.3832220000000001    0.8698910000000000 Fe
   0.3832220000000001    0.8741930000000001    0.8698910000000000 Fe
   0.0977640000000000    0.0977640000000000    0.7156849999999999 Fe
   0.9972530000000001    0.9972530000000001    0.0023800000000000 Fe
   0.3529860000000001    0.3529860000000001    0.9714629999999999 Fe
   0.2610689999999999    0.8157109999999999    0.0629200000000000 O
   0.9250760000000001    0.9250760000000001    0.1763890000000000 O
   0.8157109999999999    0.2610689999999999    0.0629200000000000 O
   0.8156080000000000    0.8156080000000000    0.0662380000000000 O
   0.4312120000000000    0.4312120000000000    0.1884520000000000 O
   0.5079060000000000    0.0626770000000000    0.3144510000000000 O
   0.4401960000000000    0.9689269999999999    0.1904910000000000 O
   0.1740340000000000    0.1740340000000000    0.4376030000000000 O
   0.0626770000000000    0.5079060000000000    0.3144510000000000 O
   0.3261250000000000    0.3261250000000000    0.0710540000000000 O
   0.0750340000000000    0.0750340000000000    0.3182190000000000 O
   0.9689269999999999    0.4401960000000000    0.1904910000000000 O
   0.8056500000000001    0.2924060000000001    0.5676059999999999 O
   0.6920830000000000    0.6920830000000000    0.4275140000000000 O
   0.7043400000000000    0.1963350000000000    0.4320410000000000 O
   0.4298870000000001    0.4298870000000001    0.6822459999999999 O
   0.2924060000000001    0.8056500000000001    0.5676059999999999 O
   0.5690989999999999    0.5690989999999999    0.3190809999999999 O
   0.3138310000000000    0.3138310000000000    0.5688169999999999 O
   0.1963350000000000    0.7043400000000000    0.4320410000000000 O
   0.9341010000000000    0.9341010000000000    0.6810500000000000 O
   0.0723070000000001    0.5422430000000000    0.8164770000000000 O
   0.9581410000000000    0.4413500000000001    0.6825120000000000 O
   0.6871160000000001    0.6871160000000001    0.9156470000000000 O
   0.5422430000000000    0.0723070000000001    0.8164770000000000 O
   0.8224580000000000    0.8224580000000000    0.5647829999999999 O
   0.5571110000000000    0.5571110000000000    0.8167090000000000 O
   0.4413500000000001    0.9581410000000000    0.6825120000000000 O
   0.1822699999999999    0.1822699999999999    0.9372640000000000 O
   0.1957960000000001    0.7184340000000000    0.9401859999999999 O
   0.0775280000000000    0.0775280000000000    0.8162429999999999 O
   0.7184340000000000    0.1957960000000001    0.9401859999999999 O
