Ca6 Tb2
1.0
   3.7889800000000000   -6.5627060000000004    0.0000000000000000
   3.7889800000000000    6.5627060000000004    0.0000000000000000
   0.0000000000000000    0.0000000000000000    6.2518659999999997
Ca Tb
6 2
direct
   0.1703110000000000    0.3406230000000000    0.2500000000000000 Ca
   0.6593770000000000    0.8296889999999998    0.2500000000000000 Ca
   0.1703110000000000    0.8296889999999999    0.2500000000000000 Ca
   0.8296890000000000    0.6593769999999998    0.7500000000000000 Ca
   0.3406230000000000    0.1703109999999999    0.7500000000000000 Ca
   0.8296890000000000    0.1703109999999999    0.7500000000000000 Ca
   0.3333329999999999    0.6666669999999998    0.7500000000000000 Tb
   0.6666669999999999    0.3333329999999998    0.2500000000000000 Tb
