Ga3 Si1
1.0
   4.1326190000000000    0.0000000000000000    0.0000000000000000
   0.0000000000000000    4.1326190000000000    0.0000000000000000
   0.0000000000000000    0.0000000000000000    4.1326190000000000
Ga Si
3 1
direct
   0.0000000000000000    0.5000000000000000    0.5000000000000000 Ga
   0.5000000000000000    0.0000000000000000    0.5000000000000000 Ga
   0.5000000000000000    0.5000000000000000    0.0000000000000000 Ga
   0.0000000000000000    0.0000000000000000    0.0000000000000000 Si
