Cu1 Ni3
1.0
  -1.7681220000000000    1.7681220000000000    3.4841129999999998
   1.7681220000000000   -1.7681220000000000    3.4841129999999998
   1.7681220000000000    1.7681220000000000   -3.4841129999999998
Cu Ni
1 3
direct
   0.0000000000000000    0.0000000000000000    0.0000000000000000 Cu
   0.7500000000000000    0.2500000000000000    0.5000000000000000 Ni
   0.2500000000000000    0.7500000000000000    0.5000000000000000 Ni
   0.5000000000000000    0.5000000000000000    0.0000000000000000 Ni
