Cd3 Fe1
1.0
   0.0000000000000000    3.3660079999999999    3.3660079999999999
   3.3660079999999999    0.0000000000000000    3.3660079999999999
   3.3660079999999999    3.3660079999999999    0.0000000000000000
Cd Fe
3 1
direct
   0.2500000000000000    0.2500000000000000    0.2500000000000001 Cd
   0.7500000000000000    0.7500000000000000    0.7500000000000000 Cd
   0.5000000000000000    0.5000000000000000    0.5000000000000001 Cd
   0.0000000000000000    0.0000000000000000    0.0000000000000000 Fe
