Ce12 Se24
1.0
  -8.5662719999999997    8.5662719999999997    8.5662719999999997
   8.5662719999999997   -8.5662719999999997    8.5662719999999997
   8.5662719999999997    8.5662719999999997   -8.5662719999999997
Ce Se
12 24
direct
   0.6250000000000001    0.7500000000000001    0.3750000000000001 Ce
   0.8750000000000000    0.2499999999999999    0.1250000000000000 Ce
   0.3750000000000001    0.6250000000000000    0.7500000000000000 Ce
   0.1250000000000000    0.8750000000000000    0.2499999999999999 Ce
   0.7500000000000001    0.3750000000000001    0.6250000000000000 Ce
   0.2500000000000000    0.1250000000000001    0.8750000000000001 Ce
   0.3750000000000001    0.2500000000000000    0.6250000000000000 Ce
   0.1250000000000000    0.7500000000000001    0.8750000000000001 Ce
   0.6250000000000000    0.3750000000000001    0.2500000000000000 Ce
   0.8750000000000001    0.1250000000000000    0.7500000000000001 Ce
   0.2500000000000001    0.6250000000000001    0.3750000000000001 Ce
   0.7500000000000001    0.8750000000000000    0.1250000000000000 Ce
   0.9065730000000000    0.8131460000000000    0.1565730000000000 Se
   0.1565730000000000    0.7500000000000001    0.3434270000000001 Se
   0.5934270000000000    0.7500000000000000    0.9065730000000000 Se
   0.3434270000000000    0.6868540000000001    0.5934270000000001 Se
   0.1565730000000000    0.9065729999999999    0.8131460000000000 Se
   0.3434270000000001    0.1565730000000000    0.7500000000000001 Se
   0.9065730000000000    0.5934270000000001    0.7500000000000000 Se
   0.5934270000000001    0.3434270000000000    0.6868540000000001 Se
   0.8131459999999999    0.1565729999999999    0.9065730000000000 Se
   0.7500000000000001    0.3434270000000000    0.1565730000000000 Se
   0.7500000000000001    0.9065730000000001    0.5934270000000000 Se
   0.6868540000000001    0.5934270000000001    0.3434270000000000 Se
   0.0934270000000001    0.1868540000000000    0.8434270000000000 Se
   0.8434270000000000    0.2499999999999999    0.6565730000000001 Se
   0.4065730000000000    0.2500000000000000    0.0934270000000000 Se
   0.6565730000000001    0.3131460000000000    0.4065730000000000 Se
   0.8434270000000000    0.0934270000000000    0.1868540000000001 Se
   0.6565730000000001    0.8434270000000001    0.2500000000000000 Se
   0.0934270000000000    0.4065730000000000    0.2500000000000000 Se
   0.4065730000000000    0.6565730000000000    0.3131460000000000 Se
   0.1868540000000001    0.8434270000000001    0.0934270000000001 Se
   0.2500000000000001    0.6565730000000001    0.8434270000000000 Se
   0.2500000000000000    0.0934270000000000    0.4065730000000000 Se
   0.3131459999999999    0.4065730000000000    0.6565730000000001 Se
