Tb5 Mg24
1.0
  -5.6423860000000001    5.6423860000000001    5.6423860000000001
   5.6423860000000001   -5.6423860000000001    5.6423860000000001
   5.6423860000000001    5.6423860000000001   -5.6423860000000001
Tb Mg
5 24
direct
   0.0000000000000000    0.0000000000000000    0.0000000000000000 Tb
   0.6276400000000000   -0.0000000000000000   -0.0000000000000000 Tb
  -0.0000000000000000    0.6276400000000000    0.0000000000000000 Tb
   0.0000000000000000    0.0000000000000000    0.6276400000000000 Tb
   0.3723600000000001    0.3723600000000001    0.3723600000000001 Tb
   0.3904409999999999    0.6753230000000000    0.0000000000000000 Mg
   0.7151169999999999    0.3246759999999999    0.3246760000000000 Mg
   0.3904410000000000   -0.0000000000000000    0.6753240000000000 Mg
   0.6753230000000000    0.3904409999999999   -0.0000000000000000 Mg
  -0.0000000000000000    0.3904409999999999    0.6753240000000000 Mg
   0.3246760000000000    0.7151169999999999    0.3246760000000000 Mg
   0.3246760000000000    0.3246760000000000    0.7151170000000000 Mg
  -0.0000000000000000    0.6753230000000000    0.3904409999999999 Mg
   0.6753230000000000   -0.0000000000000000    0.3904409999999999 Mg
   0.6095590000000000    0.6095590000000000    0.2848830000000000 Mg
   0.2848830000000000    0.6095590000000000    0.6095590000000000 Mg
   0.6095590000000000    0.2848830000000000    0.6095590000000000 Mg
   0.3697059999999999    0.1904030000000000   -0.0000000000000000 Mg
   0.1793030000000000    0.8095970000000001    0.8095970000000001 Mg
   0.3697060000000000   -0.0000000000000000    0.1904030000000000 Mg
   0.1904030000000000    0.3697060000000000    0.0000000000000000 Mg
   0.0000000000000000    0.3697060000000000    0.1904030000000000 Mg
   0.8095970000000001    0.1793030000000000    0.8095970000000001 Mg
   0.8095970000000001    0.8095970000000001    0.1793030000000000 Mg
   0.0000000000000000    0.1904030000000000    0.3697060000000000 Mg
   0.1904030000000000    0.0000000000000000    0.3697060000000000 Mg
   0.6302940000000000    0.6302940000000000    0.8206970000000000 Mg
   0.8206970000000001    0.6302940000000001    0.6302940000000000 Mg
   0.6302940000000001    0.8206970000000001    0.6302940000000000 Mg
