Mg4 Ru2
1.0
   3.3864079999999999   -4.1683339999999998    0.0000000000000000
   3.3864079999999999    4.1683339999999998    0.0000000000000000
   0.0000000000000000    0.0000000000000000    4.4509879999999997
Mg Ru
4 2
direct
   0.4161230000000000    0.1240250000000000    0.7500000000000001 Mg
   0.1240250000000000    0.4161230000000000    0.2500000000000000 Mg
   0.5838770000000001    0.8759750000000001    0.2500000000000000 Mg
   0.8759750000000001    0.5838770000000001    0.7500000000000001 Mg
   0.9245100000000001    0.0754900000000000    0.7500000000000001 Ru
   0.0754900000000000    0.9245100000000001    0.2500000000000000 Ru
