Cd1 Hg3
1.0
  -2.3271980000000001    2.3271980000000001    5.1407480000000003
   2.3271980000000001   -2.3271980000000001    5.1407480000000003
   2.3271980000000001    2.3271980000000001   -5.1407480000000003
Cd Hg
1 3
direct
   0.0000000000000000    0.0000000000000000    0.0000000000000000 Cd
   0.7500000000000000    0.2500000000000000    0.5000000000000000 Hg
   0.2500000000000000    0.7500000000000000    0.5000000000000000 Hg
   0.5000000000000000    0.5000000000000000    0.0000000000000000 Hg
