Zr3 Cd1
1.0
   4.4686620000000001    0.0000000000000000    0.0000000000000000
   0.0000000000000000    4.4686620000000001    0.0000000000000000
   0.0000000000000000    0.0000000000000000    4.4686620000000001
Zr Cd
3 1
direct
   0.0000000000000000    0.5000000000000000    0.5000000000000000 Zr
   0.5000000000000000    0.0000000000000000    0.5000000000000000 Zr
   0.5000000000000000    0.5000000000000000    0.0000000000000000 Zr
   0.0000000000000000    0.0000000000000000    0.0000000000000000 Cd
