Tl32 Te32
1.0
  18.6034830000000007    0.0000000000000000    0.0000000000000000
   0.0000000000000000   18.6034830000000007    0.0000000000000000
   0.0000000000000000    0.0000000000000000    6.2902110000000002
Tl Te
32 32
direct
   0.8241570000000000    0.0964910000000000    0.7527930000000000 Tl
   0.0961520000000000    0.6755250000000000    0.7537810000000000 Tl
   0.1755250000000000    0.4038480000000000    0.2537810000000000 Tl
   0.8244750000000001    0.5961520000000000    0.2537810000000000 Tl
   0.3244750000000000    0.9038480000000000    0.2462190000000000 Tl
   0.4038480000000000    0.1755250000000000    0.7462189999999999 Tl
   0.5961520000000000    0.8244750000000001    0.7462189999999999 Tl
   0.6755250000000000    0.0961520000000000    0.2462190000000000 Tl
   0.5961520000000000    0.1755250000000000    0.7462189999999999 Tl
   0.4038480000000000    0.8244750000000001    0.7462189999999999 Tl
   0.3244750000000000    0.0961520000000000    0.2462190000000000 Tl
   0.6755250000000000    0.9038480000000000    0.2462190000000000 Tl
   0.1755250000000000    0.5961520000000000    0.2537810000000000 Tl
   0.0961520000000000    0.3244750000000000    0.7537810000000000 Tl
   0.9038480000000000    0.6755250000000000    0.7537810000000000 Tl
   0.8244750000000001    0.4038480000000000    0.2537810000000000 Tl
   0.9038480000000000    0.3244750000000000    0.7537810000000000 Tl
   0.1758430000000000    0.9035090000000000    0.7527930000000000 Tl
   0.4035090000000000    0.3241570000000000    0.2527930000000000 Tl
   0.5964910000000000    0.6758430000000000    0.2527930000000000 Tl
   0.0964910000000000    0.8241570000000000    0.2472070000000000 Tl
   0.3241570000000000    0.4035090000000000    0.7472070000000000 Tl
   0.6758430000000000    0.5964910000000000    0.7472070000000000 Tl
   0.9035090000000000    0.1758430000000000    0.2472070000000000 Tl
   0.6758430000000000    0.4035090000000000    0.7472070000000000 Tl
   0.3241570000000000    0.5964910000000000    0.7472070000000000 Tl
   0.0964910000000000    0.1758430000000000    0.2472070000000000 Tl
   0.9035090000000000    0.8241570000000000    0.2472070000000000 Tl
   0.4035090000000000    0.6758430000000000    0.2527930000000000 Tl
   0.1758430000000000    0.0964910000000000    0.7527930000000000 Tl
   0.8241570000000000    0.9035090000000000    0.7527930000000000 Tl
   0.5964910000000000    0.3241570000000000    0.2527930000000000 Tl
   0.7512570000000000    0.2487430000000000    0.5000000000000000 Te
   0.7487430000000002    0.7487430000000002    0.0000000000000000 Te
   0.2512570000000000    0.2512570000000000    0.0000000000000000 Te
   0.2487430000000000    0.7512570000000000    0.5000000000000000 Te
   0.7487430000000002    0.2512570000000000    0.0000000000000000 Te
   0.7512570000000000    0.7512570000000000    0.5000000000000000 Te
   0.2487430000000000    0.2487430000000000    0.5000000000000000 Te
   0.2512570000000000    0.7487430000000002    0.0000000000000000 Te
   0.0000000000000000    0.0000000000000000    0.2390130000000000 Te
   0.5000000000000000    0.5000000000000000    0.7390130000000000 Te
   0.5000000000000000    0.5000000000000000    0.2609870000000000 Te
   0.0000000000000000    0.0000000000000000    0.7609870000000000 Te
   0.5000000000000000    0.0000000000000000    0.2483910000000000 Te
   0.5000000000000000    0.0000000000000000    0.7483910000000000 Te
   0.0000000000000000    0.5000000000000000    0.2516090000000000 Te
   0.1633730000000000    0.5000000000000000    0.7523460000000000 Te
   0.5000000000000000    0.3368030000000000    0.7650489999999999 Te
   0.5000000000000000    0.6631970000000000    0.7650489999999999 Te
   0.1631970000000000    0.0000000000000000    0.2650490000000000 Te
   0.8368030000000000    0.0000000000000000    0.2650490000000000 Te
   0.3368030000000000    0.5000000000000000    0.2349510000000000 Te
   0.0000000000000000    0.1631970000000000    0.7349510000000000 Te
   0.0000000000000000    0.8368030000000000    0.7349510000000000 Te
   0.6631970000000000    0.5000000000000000    0.2349510000000000 Te
   0.5000000000000000    0.8366270000000000    0.2476540000000000 Te
   0.5000000000000000    0.1633730000000000    0.2476540000000000 Te
   0.6633730000000001    0.0000000000000000    0.7476540000000000 Te
   0.3366270000000000    0.0000000000000000    0.7476540000000000 Te
   0.8366270000000000    0.5000000000000000    0.7523460000000000 Te
   0.0000000000000000    0.6633730000000001    0.2523460000000000 Te
   0.0000000000000000    0.3366270000000000    0.2523460000000000 Te
   0.0000000000000000    0.5000000000000000    0.7516090000000000 Te
