Pm2 Ni6
1.0
   2.9214530000000001   -5.0601039999999999    0.0000000000000000
   2.9214530000000001    5.0601039999999999    0.0000000000000000
   0.0000000000000000    0.0000000000000000    4.2345300000000003
Pm Ni
2 6
direct
   0.3333330000000000    0.6666670000000000    0.7500000000000000 Pm
   0.6666670000000000    0.3333330000000000    0.2500000000000000 Pm
   0.1404650000000000    0.2809310000000000    0.2500000000000000 Ni
   0.7190690000000001    0.8595350000000000    0.2500000000000000 Ni
   0.1404650000000000    0.8595350000000000    0.2500000000000000 Ni
   0.8595350000000000    0.7190690000000001    0.7500000000000000 Ni
   0.2809310000000000    0.1404650000000000    0.7500000000000000 Ni
   0.8595350000000000    0.1404650000000000    0.7500000000000000 Ni
