Si6 N8
1.0
   3.8301539999999998   -6.6340209999999997    0.0000000000000000
   3.8301539999999998    6.6340209999999997    0.0000000000000000
   0.0000000000000000    0.0000000000000000    2.9250850000000002
Si N
6 8
direct
   0.2312440000000000    0.8251370000000000    0.7500000000000001 Si
   0.4061070000000001    0.2312440000000001    0.2500000000000000 Si
   0.8251370000000000    0.5938930000000000    0.2500000000000000 Si
   0.1748630000000000    0.4061070000000000    0.7500000000000001 Si
   0.5938930000000000    0.7687560000000000    0.7500000000000001 Si
   0.7687560000000001    0.1748630000000000    0.2500000000000000 Si
   0.3333329999999999    0.6666669999999999    0.7500000000000001 N
   0.6666669999999999    0.3333329999999999    0.2500000000000000 N
   0.9693210000000000    0.6700570000000000    0.7500000000000001 N
   0.2992639999999999    0.9693210000000000    0.2500000000000000 N
   0.6700570000000001    0.7007360000000000    0.2500000000000000 N
   0.3299430000000000    0.2992640000000000    0.7500000000000001 N
   0.0306790000000000    0.3299430000000000    0.2500000000000000 N
   0.7007360000000000    0.0306790000000000    0.7500000000000001 N
