Tl16 S12
1.0
  13.1287070000000003    0.0000000000000000    0.0000000000000000
   0.0000000000000000    8.1392670000000003    0.0000000000000000
   0.0000000000000000    1.9263850000000000    8.1335329999999999
Tl S
16 12
direct
   0.7760410000000000    0.4599200000000001    0.7071280000000000 Tl
   0.2760410000000000    0.0400800000000000    0.2928720000000000 Tl
   0.2239590000000000    0.5400800000000000    0.2928720000000000 Tl
   0.7239590000000000    0.9599200000000001    0.7071280000000000 Tl
   0.7900290000000001    0.5845029999999999    0.1973120000000000 Tl
   0.2900290000000000    0.9154970000000002    0.8026880000000001 Tl
   0.2099710000000000    0.4154970000000000    0.8026880000000001 Tl
   0.7099710000000001    0.0845030000000000    0.1973120000000000 Tl
   0.5341410000000001    0.7235029999999999    0.0873450000000000 Tl
   0.0341410000000000    0.7764970000000001    0.9126550000000000 Tl
   0.4658590000000000    0.2764970000000000    0.9126550000000000 Tl
   0.9658590000000001    0.2235030000000000    0.0873450000000000 Tl
   0.4981310000000000    0.2708400000000000    0.4711510000000000 Tl
   0.9981310000000000    0.2291600000000000    0.5288490000000000 Tl
   0.5018690000000000    0.7291600000000001    0.5288490000000000 Tl
   0.0018690000000000    0.7708400000000000    0.4711510000000000 Tl
   0.8343800000000000    0.9157490000000001    0.9613100000000001 S
   0.3343800000000001    0.5842510000000001    0.0386900000000000 S
   0.1656200000000000    0.0842510000000000    0.0386900000000000 S
   0.6656200000000000    0.4157490000000000    0.9613100000000001 S
   0.7470640000000001    0.7559100000000001    0.5083150000000000 S
   0.2470640000000000    0.7440900000000000    0.4916850000000000 S
   0.2529360000000000    0.2440900000000000    0.4916850000000000 S
   0.7529360000000002    0.2559100000000000    0.5083150000000000 S
   0.9722410000000001    0.4571730000000000    0.7591750000000000 S
   0.4722410000000001    0.0428270000000000    0.2408250000000000 S
   0.0277590000000000    0.5428269999999999    0.2408250000000000 S
   0.5277590000000000    0.9571730000000001    0.7591750000000000 S
