Pd1 Pb3
1.0
  -2.4049710000000002    2.4049710000000002    4.5695180000000004
   2.4049710000000002   -2.4049710000000002    4.5695180000000004
   2.4049710000000002    2.4049710000000002   -4.5695180000000004
Pd Pb
1 3
direct
   0.0000000000000000    0.0000000000000000    0.0000000000000000 Pd
   0.5000000000000000    0.5000000000000000    0.0000000000000000 Pb
   0.7500000000000001    0.2499999999999999    0.5000000000000000 Pb
   0.2499999999999999    0.7500000000000001    0.5000000000000001 Pb
