Nb2 O5
1.0
   1.9363649999999999    6.5465350000000004    0.0000000000000000
  -1.9363649999999999    6.5465350000000004    0.0000000000000000
   0.0000000000000000    0.0536200000000000    4.0605919999999998
Nb O
2 5
direct
   0.1461600000000000    0.1461600000000000    0.9327839999999999 Nb
   0.8538400000000002    0.8538400000000002    0.0672160000000000 Nb
   0.1475830000000000    0.1475830000000000    0.4893660000000000 O
   0.8524169999999999    0.8524169999999999    0.5106340000000000 O
   0.0000000000000000    0.0000000000000000    0.0000000000000000 O
   0.3149670000000000    0.3149670000000000    0.0030850000000000 O
   0.6850330000000000    0.6850330000000000    0.9969150000000001 O
