Ba1 Ca3
1.0
  -2.9411740000000002    2.9411740000000002    5.4874320000000001
   2.9411740000000002   -2.9411740000000002    5.4874320000000001
   2.9411740000000002    2.9411740000000002   -5.4874320000000001
Ba Ca
1 3
direct
   0.0000000000000000    0.0000000000000000    0.0000000000000000 Ba
   0.7500000000000000    0.2500000000000000    0.5000000000000000 Ca
   0.2500000000000000    0.7500000000000000    0.5000000000000000 Ca
   0.5000000000000000    0.5000000000000000    0.0000000000000000 Ca
