Fe2 O4
1.0
   4.6094130000000000    0.0000000000000000    0.0000000000000000
   0.0000000000000000    4.6094130000000000    0.0000000000000000
   0.0000000000000000    0.0000000000000000    2.9771079999999999
Fe O
2 4
direct
   0.0000000000000000    0.0000000000000000    0.0000000000000000 Fe
   0.5000000000000000    0.5000000000000000    0.5000000000000000 Fe
   0.8094560000000000    0.1905440000000000    0.5000000000000000 O
   0.3094560000000000    0.3094560000000000    0.0000000000000000 O
   0.6905440000000000    0.6905440000000000    0.0000000000000000 O
   0.1905440000000000    0.8094560000000000    0.5000000000000000 O
