Ce4 Sb2
1.0
  -2.2290350000000001    2.2290350000000001    8.6850719999999999
   2.2290350000000001   -2.2290350000000001    8.6850719999999999
   2.2290350000000001    2.2290350000000001   -8.6850719999999999
Ce Sb
4 2
direct
   0.1747200000000000    0.1747200000000000    0.0000000000000000 Ce
   0.8252800000000000    0.8252800000000000    0.0000000000000000 Ce
   0.5000000000000000    0.0000000000000000    0.5000000000000000 Ce
   0.0000000000000000    0.5000000000000000    0.5000000000000000 Ce
   0.6387140000000000    0.6387140000000000    0.0000000000000000 Sb
   0.3612860000000000    0.3612860000000000    0.0000000000000000 Sb
