Ce2 Ag6
1.0
   6.5616130000000004    0.0034450000000000    0.0000000000000000
  -3.2778230000000002    5.6794089999999997    0.0000000000000000
   0.0000000000000000    0.0000000000000000    4.8983800000000004
Ce Ag
2 6
direct
   0.3332080000000001    0.6666020000000001    0.7500010000000000 Ce
   0.6666149999999998    0.3334600000000000    0.2500010000000000 Ce
   0.1506760000000000    0.3014470000000001    0.2500010000000000 Ag
   0.6986200000000000    0.8493820000000001    0.2500010000000000 Ag
   0.1507840000000000    0.8492410000000000    0.2500010000000000 Ag
   0.8493120000000000    0.6985930000000001    0.7500010000000000 Ag
   0.3014120000000000    0.1506410000000000    0.7500010000000000 Ag
   0.8493720000000000    0.1506310000000000    0.7500010000000000 Ag
