V21 S24
1.0
  -3.1934390000000001   -5.5290540000000004   -0.0005800000000000
  -3.1935060000000002    5.5290929999999996   -0.0001750000000000
  -0.0021410000000000   -0.0006780000000000  -18.0318770000000015
V S
21 24
direct
   0.5004580000000001    0.5000190000000001    0.4979410000000000 V
   0.9997860000000002    0.4999880000000000    0.8333770000000000 V
   0.4996490000000002    0.9994300000000003    0.1645470000000000 V
   0.0008270000000000    0.5008110000000001    0.5000499999999999 V
   0.5004070000000002    0.5000270000000000    0.1687120000000000 V
   0.4996880000000001    0.9994610000000003    0.8354709999999999 V
   0.4990770000000001    0.5006880000000000    0.6657469999999999 V
   0.9999340000000002    0.4998590000000002    0.9999209999999997 V
   0.5012440000000001    0.0009530000000001    0.3324279999999999 V
   0.9997700000000003    0.4998760000000000    0.3333469999999999 V
   0.4985930000000001    0.4993930000000001    0.0009000000000000 V
   0.5010910000000001    0.0013790000000001    0.6676559999999999 V
   0.0002170000000000    0.0005920000000000    0.5021120000000000 V
   0.0003180000000000    0.0006050000000000    0.8311639999999999 V
   0.9998190000000001    0.0012090000000000    0.1666330000000000 V
   0.9998290000000002    0.9985150000000000    0.9989810000000000 V
   0.0003280000000000    0.9989200000000003    0.3343519999999999 V
   0.0001230000000000    0.5000610000000001    0.6667720000000000 V
   0.4984860000000002    0.9985440000000002    0.5000410000000000 V
   0.5007150000000002    0.4999860000000000    0.8333750000000000 V
   0.9999240000000004    0.4993270000000003    0.1666070000000000 V
   0.3333750000000001    0.6669000000000002    0.5825810000000000 S
   0.3360640000000002    0.6722460000000001    0.9182189999999999 S
   0.3353150000000001    0.6643020000000001    0.2512369999999999 S
   0.6638400000000002    0.3358170000000001    0.4150799999999999 S
   0.6647090000000001    0.3290830000000001    0.0821950000000000 S
   0.6668200000000001    0.3333330000000000    0.7506839999999999 S
   0.1638280000000000    0.3277520000000000    0.7484169999999999 S
   0.1719200000000000    0.8361220000000001    0.0817560000000000 S
   0.6641350000000001    0.8289380000000000    0.4154709999999999 S
   0.8280600000000001    0.6639900000000000    0.2515900000000000 S
   0.3356650000000001    0.1645230000000000    0.9178569999999999 S
   0.8354220000000001    0.1635640000000000    0.5849589999999999 S
   0.1667340000000000    0.3334270000000000    0.0840570000000000 S
   0.1668760000000002    0.8332040000000002    0.4174660000000000 S
   0.6712510000000000    0.8357490000000002    0.7487630000000000 S
   0.8334210000000002    0.6666070000000002    0.9159929999999999 S
   0.3288940000000001    0.1640850000000001    0.5845509999999999 S
   0.8334280000000002    0.1667970000000000    0.2492760000000000 S
   0.1710990000000000    0.3358670000000000    0.4155400000000000 S
   0.1644300000000001    0.8354560000000002    0.7487969999999999 S
   0.6645280000000002    0.8358110000000002    0.0821720000000000 S
   0.8355260000000000    0.6708750000000000    0.5844779999999999 S
   0.3355750000000000    0.1712170000000001    0.2512520000000000 S
   0.8288030000000000    0.1646920000000001    0.9177789999999998 S
