Cr2 Ir6
1.0
   2.7193600000000000   -4.7100700000000000    0.0000000000000000
   2.7193600000000000    4.7100700000000000    0.0000000000000000
   0.0000000000000000    0.0000000000000000    4.3180639999999997
Cr Ir
2 6
direct
   0.3333330000000000    0.6666669999999999    0.7500000000000000 Cr
   0.6666670000000000    0.3333329999999999    0.2500000000000000 Cr
   0.1692270000000000    0.3384529999999999    0.2500000000000000 Ir
   0.6615470000000001    0.8307729999999998    0.2500000000000000 Ir
   0.1692270000000000    0.8307729999999998    0.2500000000000000 Ir
   0.8307730000000000    0.6615469999999999    0.7500000000000000 Ir
   0.3384530000000000    0.1692269999999999    0.7500000000000000 Ir
   0.8307729999999999    0.1692269999999999    0.7500000000000000 Ir
