Te4 O12
1.0
   4.9260380000000001    0.0000000000000000    0.0000000000000000
   0.0000000000000000    5.2188980000000003    0.0000000000000000
   0.0000000000000000    0.0000000000000000    8.4652969999999996
Te O
4 12
direct
   0.0000000000000000    0.7500000000000000    0.0925300000000000 Te
   0.5000000000000000    0.7500000000000000    0.4074700000000000 Te
   0.0000000000000000    0.2500000000000000    0.9074700000000000 Te
   0.5000000000000000    0.2500000000000000    0.5925300000000000 Te
   0.2500000000000000    0.8885780000000000    0.2500000000000000 O
   0.2873280000000000    0.9352520000000000    0.5738190000000001 O
   0.2126720000000000    0.9352520000000000    0.9261810000000000 O
   0.7126720000000000    0.0647480000000000    0.4261810000000000 O
   0.7873280000000000    0.0647480000000000    0.0738190000000000 O
   0.7500000000000000    0.1114220000000000    0.7500000000000000 O
   0.2500000000000000    0.3885780000000000    0.7500000000000000 O
   0.2126720000000000    0.4352520000000000    0.0738190000000000 O
   0.2873280000000000    0.4352520000000000    0.4261810000000000 O
   0.7873280000000000    0.5647480000000000    0.9261810000000000 O
   0.7126720000000000    0.5647480000000000    0.5738190000000001 O
   0.7500000000000000    0.6114220000000000    0.2500000000000000 O
