Mg4 Ga2
1.0
   1.5117410000000000   -7.8447310000000003    0.0000000000000000
   1.5117410000000000    7.8447310000000003    0.0000000000000000
   0.0000000000000000    0.0000000000000000    5.3229210000000000
Mg Ga
4 2
direct
   0.6198749999999998    0.3801249999999999    0.2500000000000000 Mg
   0.9401440000000000    0.0598560000000000    0.2500000000000000 Mg
   0.0598560000000000    0.9401440000000000    0.7500000000000000 Mg
   0.3801249999999999    0.6198749999999998    0.7500000000000000 Mg
   0.2765489999999999    0.7234509999999998    0.2500000000000000 Ga
   0.7234509999999998    0.2765489999999999    0.7500000000000000 Ga
