Sm20 S38
1.0
   8.8484839999999991    0.0000000000000000    0.0000000000000000
   0.0000000000000000    8.8484839999999991    0.0000000000000000
   0.0000000000000000    0.0000000000000000   16.0761199999999995
Sm S
20 38
direct
   0.8049280000000000    0.1042640000000000    0.8533300000000000 Sm
   0.3957360000000000    0.3049280000000000    0.3533300000000000 Sm
   0.6042640000000000    0.6950720000000000    0.3533300000000000 Sm
   0.1950720000000000    0.8957360000000000    0.8533300000000000 Sm
   0.6950720000000000    0.3957360000000000    0.6466700000000000 Sm
   0.1042640000000000    0.1950720000000000    0.1466700000000000 Sm
   0.8957360000000000    0.8049280000000000    0.1466700000000000 Sm
   0.3049280000000000    0.6042640000000000    0.6466700000000000 Sm
   0.7910930000000000    0.0979860000000000    0.3717810000000000 Sm
   0.4020140000000000    0.2910930000000000    0.8717810000000000 Sm
   0.5979860000000000    0.7089070000000000    0.8717810000000000 Sm
   0.2089070000000000    0.9020140000000000    0.3717810000000000 Sm
   0.7089070000000000    0.4020140000000000    0.1282190000000000 Sm
   0.0979860000000000    0.2089070000000000    0.6282190000000000 Sm
   0.9020140000000000    0.7910930000000000    0.6282190000000000 Sm
   0.2910930000000000    0.5979860000000000    0.1282190000000000 Sm
   0.5000000000000000    0.0000000000000000    0.1349130000000000 Sm
   0.5000000000000000    0.0000000000000000    0.6349130000000001 Sm
   0.0000000000000000    0.5000000000000000    0.3650870000000000 Sm
   0.0000000000000000    0.5000000000000000    0.8650870000000001 Sm
   0.5000000000000000    0.5000000000000000    0.0000000000000000 S
   0.0000000000000000    0.0000000000000000    0.5000000000000000 S
   0.5556660000000000    0.2196520000000000    0.5007720000000000 S
   0.2803480000000000    0.0556660000000000    0.0007720000000000 S
   0.7196520000000000    0.9443339999999999    0.0007720000000000 S
   0.4443340000000000    0.7803480000000000    0.5007720000000000 S
   0.9443339999999999    0.2803480000000000    0.9992280000000001 S
   0.2196520000000000    0.4443340000000000    0.4992280000000000 S
   0.7803480000000000    0.5556660000000000    0.4992280000000000 S
   0.0556660000000000    0.7196520000000000    0.9992280000000001 S
   0.6378810000000000    0.1753510000000000    0.9998480000000000 S
   0.3246490000000000    0.1378810000000000    0.4998480000000000 S
   0.6753510000000000    0.8621190000000000    0.4998480000000000 S
   0.3621190000000000    0.8246489999999999    0.9998480000000000 S
   0.8621190000000000    0.3246490000000000    0.5001520000000000 S
   0.1753510000000000    0.3621190000000000    0.0001520000000000 S
   0.8246489999999999    0.6378810000000000    0.0001520000000000 S
   0.1378810000000000    0.6753510000000000    0.5001520000000000 S
   0.0000000000000000    0.5000000000000000    0.1848730000000000 S
   0.0000000000000000    0.5000000000000000    0.6848730000000000 S
   0.3031960000000000    0.6016210000000000    0.3121840000000000 S
   0.8983790000000000    0.8031960000000000    0.8121840000000000 S
   0.1016210000000000    0.1968040000000000    0.8121840000000000 S
   0.6968040000000000    0.3983789999999999    0.3121840000000000 S
   0.1968040000000000    0.8983790000000000    0.1878160000000000 S
   0.6016210000000000    0.6968040000000000    0.6878160000000000 S
   0.3983789999999999    0.3031960000000000    0.6878160000000000 S
   0.8031960000000000    0.1016210000000000    0.1878160000000000 S
   0.2989250000000000    0.5980880000000000    0.8229830000000000 S
   0.9019120000000000    0.7989250000000000    0.3229830000000000 S
   0.0980880000000000    0.2010750000000000    0.3229830000000000 S
   0.7010750000000000    0.4019119999999999    0.8229830000000000 S
   0.2010750000000000    0.9019120000000000    0.6770170000000000 S
   0.5980880000000000    0.7010750000000000    0.1770170000000000 S
   0.4019119999999999    0.2989250000000000    0.1770170000000000 S
   0.7989250000000000    0.0980880000000000    0.6770170000000000 S
   0.5000000000000000    0.0000000000000000    0.8151270000000000 S
   0.5000000000000000    0.0000000000000000    0.3151270000000000 S
