Na12 Te36
1.0
   4.5668170000000003   -7.9099589999999997    0.0000000000000000
   4.5668170000000003    7.9099589999999997    0.0000000000000000
   0.0000000000000000    0.0000000000000000   22.1901669999999989
Na Te
12 36
direct
   0.0000000000000000    0.0000000000000000    0.1236110000000000 Na
   0.0000000000000000    0.0000000000000000    0.3763890000000000 Na
   0.0000000000000000    0.0000000000000000    0.8763890000000000 Na
   0.0000000000000000    0.0000000000000000    0.6236110000000000 Na
   0.3333330000000000    0.6666670000000000    0.9589440000000000 Na
   0.6666670000000000    0.3333330000000000    0.5410560000000000 Na
   0.6666670000000000    0.3333330000000000    0.0410560000000000 Na
   0.3333330000000000    0.6666670000000000    0.4589440000000000 Na
   0.3333330000000000    0.6666670000000000    0.2067680000000000 Na
   0.6666670000000000    0.3333330000000000    0.2932320000000000 Na
   0.6666670000000000    0.3333330000000000    0.7932320000000000 Na
   0.3333330000000000    0.6666670000000000    0.7067680000000000 Na
   0.7947510000000000    0.6623720000000000    0.2066850000000000 Te
   0.3376280000000000    0.1323790000000000    0.2066850000000000 Te
   0.8676210000000000    0.2052490000000000    0.2066850000000000 Te
   0.1323790000000000    0.3376280000000000    0.2933150000000000 Te
   0.2052490000000000    0.8676210000000000    0.2933150000000000 Te
   0.6623720000000000    0.7947510000000000    0.2933150000000000 Te
   0.2052490000000000    0.3376280000000000    0.7933150000000000 Te
   0.6623720000000000    0.8676210000000000    0.7933150000000000 Te
   0.1323790000000000    0.7947510000000000    0.7933150000000000 Te
   0.8676210000000000    0.6623720000000000    0.7066850000000000 Te
   0.7947510000000000    0.1323790000000000    0.7066850000000000 Te
   0.3376280000000000    0.2052490000000000    0.7066850000000000 Te
   0.6709829999999999    0.8404110000000000    0.5404090000000000 Te
   0.1595890000000000    0.8305720000000000    0.5404090000000000 Te
   0.1694280000000000    0.3290170000000000    0.5404090000000000 Te
   0.8305720000000000    0.1595890000000000    0.9595910000000000 Te
   0.3290170000000000    0.1694280000000000    0.9595910000000000 Te
   0.8404110000000000    0.6709829999999999    0.9595910000000000 Te
   0.3290170000000000    0.1595890000000000    0.4595910000000000 Te
   0.8404109999999999    0.1694280000000000    0.4595910000000000 Te
   0.8305720000000000    0.6709830000000000    0.4595910000000000 Te
   0.1694280000000000    0.8404109999999999    0.0404090000000000 Te
   0.6709830000000000    0.8305720000000000    0.0404090000000000 Te
   0.1595890000000000    0.3290170000000000    0.0404090000000000 Te
   0.0082350000000000    0.5275810000000000    0.6214560000000000 Te
   0.4724190000000000    0.4806540000000000    0.6214560000000000 Te
   0.5193460000000001    0.9917650000000000    0.6214560000000000 Te
   0.4806540000000000    0.4724190000000000    0.8785439999999999 Te
   0.9917650000000000    0.5193460000000001    0.8785439999999999 Te
   0.5275810000000000    0.0082350000000000    0.8785439999999999 Te
   0.9917650000000000    0.4724190000000000    0.3785440000000000 Te
   0.5275810000000000    0.5193460000000000    0.3785440000000000 Te
   0.4806540000000001    0.0082350000000000    0.3785440000000000 Te
   0.5193460000000000    0.5275810000000000    0.1214560000000000 Te
   0.0082350000000000    0.4806540000000001    0.1214560000000000 Te
   0.4724190000000000    0.9917650000000000    0.1214560000000000 Te
