V14 O26
1.0
   5.5734230000000000   -0.0447400000000000    0.0690160000000000
   2.2571850000000002    6.6774440000000004    0.7668050000000000
  -0.1452650000000000    0.1255600000000000   11.4513200000000008
V O
14 26
direct
   0.4071000000000001    0.7546850000000001    0.3595400000000000 V
   0.6103400000000001    0.2269550000000000    0.6392910000000001 V
   0.2087260000000000    0.4916970000000001    0.7904040000000000 V
   0.7909910000000001    0.5129860000000001    0.2013250000000000 V
   0.7902090000000001    0.7176500000000001    0.9462920000000000 V
   0.2142750000000000    0.2872620000000000    0.0511760000000000 V
   0.1995929999999999    0.7880320000000000    0.0596100000000000 V
   0.7956250000000000    0.2191340000000001    0.9402530000000000 V
   0.2172850000000000    0.9784310000000002    0.7945020000000000 V
   0.7997700000000002    0.0180240000000000    0.2148190000000000 V
   0.3803239999999999    0.2671360000000000    0.3463240000000000 V
   0.6138200000000000    0.7328620000000000    0.6457179999999999 V
   0.0027710000000000    0.9967320000000001    0.5045600000000000 V
   0.9989600000000000    0.4976689999999999    0.4986420000000000 V
   0.8671830000000000    0.7713690000000000    0.1201740000000000 O
   0.1277480000000000    0.2431580000000001    0.8791390000000000 O
   0.4109400000000000    0.6934190000000002    0.1796369999999999 O
   0.5835900000000002    0.2988070000000000    0.8186890000000000 O
   0.0486120000000000    0.0742210000000000    0.0904980000000000 O
   0.9473670000000000    0.9321300000000001    0.9099579999999999 O
   0.1514330000000000    0.3657790000000001    0.2040430000000000 O
   0.8584600000000002    0.6345350000000000    0.7930979999999999 O
   0.8942440000000001    0.7572390000000001    0.5506410000000000 O
   0.0908110000000000    0.2448190000000001    0.4554849999999999 O
   0.6743220000000001    0.2852670000000000    0.2497290000000000 O
   0.3300399999999998    0.6967260000000002    0.7483990000000000 O
   0.8050160000000000    0.4466130000000001    0.0227660000000000 O
   0.1881840000000000    0.5594640000000001    0.9734890000000000 O
   0.9637600000000002    0.0728740000000000    0.6704149999999999 O
   0.0294089999999999    0.9342550000000002    0.3312010000000000 O
   0.2482370000000001    0.3945340000000001    0.6443370000000000 O
   0.7488700000000003    0.5972339999999999    0.3639180000000000 O
   0.5047560000000000    0.9881740000000001    0.2934460000000000 O
   0.5178580000000000    0.9893530000000000    0.7010580000000000 O
   0.5424930000000000    0.1678050000000000    0.0535970000000000 O
   0.4569430000000000    0.8327400000000001    0.9455120000000000 O
   0.7144480000000000    0.4729890000000000    0.6066449999999999 O
   0.2720370000000000    0.5465340000000001    0.3986990000000001 O
   0.3715460000000001    0.8348300000000000    0.5117150000000000 O
   0.6219030000000001    0.1758760000000000    0.4912560000000000 O
