Ce4 Zn12
1.0
   4.5365690000000001    0.0000000000000000    0.0000000000000000
   0.0000000000000000    6.7261600000000001    0.0000000000000000
   0.0000000000000000    0.0000000000000000   10.1222870000000000
Ce Zn
4 12
direct
   0.2500000000000000    0.2796860000000000    0.6554470000000001 Ce
   0.2500000000000000    0.7796860000000000    0.8445530000000001 Ce
   0.7500000000000000    0.7203140000000001    0.3445530000000000 Ce
   0.7500000000000000    0.2203140000000000    0.1554470000000000 Ce
   0.2500000000000000    0.5372580000000000    0.1104570000000000 Zn
   0.2500000000000000    0.0372580000000000    0.3895430000000000 Zn
   0.7500000000000000    0.4627420000000000    0.8895430000000001 Zn
   0.7500000000000000    0.9627420000000001    0.6104570000000001 Zn
   0.2500000000000000    0.9184830000000002    0.1455790000000000 Zn
   0.2500000000000000    0.4184830000000000    0.3544210000000000 Zn
   0.7500000000000000    0.0815170000000000    0.8544210000000000 Zn
   0.7500000000000000    0.5815170000000000    0.6455790000000000 Zn
   0.2500000000000000    0.2197040000000000    0.9558850000000000 Zn
   0.2500000000000000    0.7197040000000001    0.5441150000000000 Zn
   0.7500000000000000    0.7802960000000000    0.0441150000000000 Zn
   0.7500000000000000    0.2802960000000000    0.4558850000000000 Zn
