Pm2 Nd6
1.0
   3.6794680000000000   -6.3730250000000002    0.0000000000000000
   3.6794680000000000    6.3730250000000002    0.0000000000000000
   0.0000000000000000    0.0000000000000000    6.0586399999999996
Pm Nd
2 6
direct
   0.6666670000000000    0.3333329999999999    0.2500000000000000 Pm
   0.3333330000000000    0.6666669999999999    0.7500000000000000 Pm
   0.8332660000000000    0.1667339999999999    0.7500000000000000 Nd
   0.3334680000000000    0.1667340000000000    0.7500000000000000 Nd
   0.8332660000000000    0.6665319999999999    0.7500000000000000 Nd
   0.1667340000000000    0.8332659999999998    0.2500000000000000 Nd
   0.6665320000000000    0.8332659999999998    0.2500000000000000 Nd
   0.1667340000000000    0.3334679999999999    0.2500000000000000 Nd
