Hg4 N24
1.0
   6.4272900000000002    0.0000000000000000    0.0000000000000000
   0.0000000000000000    6.7645679999999997    0.0000000000000000
   0.0000000000000000    0.0000000000000000   11.0524699999999996
Hg N
4 24
direct
   0.2398120000000000    0.9362970000000000    0.5296400000000000 Hg
   0.7601880000000000    0.4362970000000000    0.4703600000000000 Hg
   0.2398120000000000    0.4362970000000000    0.9703600000000000 Hg
   0.7601880000000000    0.9362970000000000    0.0296400000000000 Hg
   0.9650650000000000    0.0772620000000000    0.5803620000000000 N
   0.0349350000000000    0.5772620000000001    0.4196380000000001 N
   0.9650650000000000    0.5772620000000001    0.9196380000000000 N
   0.0349350000000000    0.0772620000000000    0.0803620000000000 N
   0.9001980000000001    0.0695140000000000    0.6836940000000000 N
   0.0998020000000000    0.5695140000000000    0.3163060000000000 N
   0.9001980000000001    0.5695140000000000    0.8163060000000001 N
   0.0998020000000000    0.0695140000000000    0.1836940000000000 N
   0.8216440000000000    0.0744040000000000    0.7779440000000001 N
   0.1783560000000000    0.5744040000000000    0.2220560000000000 N
   0.8216440000000000    0.5744040000000000    0.7220560000000000 N
   0.1783560000000000    0.0744040000000000    0.2779440000000000 N
   0.5168779999999999    0.8142239999999999    0.4629380000000000 N
   0.4831220000000000    0.3142240000000000    0.5370620000000000 N
   0.5168779999999999    0.3142240000000000    0.0370620000000000 N
   0.4831220000000000    0.8142239999999999    0.9629380000000000 N
   0.5987460000000000    0.9153900000000000    0.3849430000000000 N
   0.4012540000000001    0.4153899999999999    0.6150570000000000 N
   0.5987460000000000    0.4153899999999999    0.1150570000000000 N
   0.4012540000000001    0.9153900000000000    0.8849430000000000 N
   0.6875750000000000    0.0027090000000000    0.3111090000000000 N
   0.3124250000000000    0.5027090000000000    0.6888910000000000 N
   0.6875750000000000    0.5027090000000000    0.1888910000000000 N
   0.3124250000000000    0.0027090000000000    0.8111090000000000 N
