Al4 O6
1.0
   4.7310790000000003   -2.4243999999999999    0.0000000000000000
   4.7310790000000003    2.4243999999999999    0.0000000000000000
   3.4887150000000000    0.0000000000000000    4.0111949999999998
Al O
4 6
direct
   0.0000000000000000    0.0000000000000000    0.0000000000000000 Al
   0.5000000000000000    0.5000000000000000    0.5000000000000000 Al
   0.6932659999999999    0.6932660000000000    0.6932660000000000 Al
   0.3067340000000000    0.3067340000000001    0.3067340000000000 Al
   0.7206000000000000    0.1074730000000000    0.3963570000000000 O
   0.6036430000000000    0.2794000000000000    0.8925270000000000 O
   0.8925270000000000    0.6036430000000002    0.2794000000000000 O
   0.1074730000000000    0.3963570000000000    0.7206000000000000 O
   0.3963569999999999    0.7206000000000001    0.1074730000000000 O
   0.2794000000000000    0.8925270000000000    0.6036430000000000 O
