Zr14 P8
1.0
   1.8146739999999999    7.9634159999999996    0.0000000000000000
  -1.8146739999999999    7.9634159999999996    0.0000000000000000
   0.0000000000000000    3.8096980000000000   14.3250879999999992
Zr P
14 8
direct
   0.3401769999999999    0.3401770000000000    0.9705490000000001 Zr
   0.9955929999999998    0.9955930000000001    0.6675320000000001 Zr
   0.1758810000000000    0.1758810000000000    0.4585980000000001 Zr
   0.8241189999999999    0.8241190000000002    0.5414020000000000 Zr
   0.5681609999999999    0.5681610000000000    0.8312130000000001 Zr
   0.0000000000000000    0.0000000000000000    0.0000000000000000 Zr
   0.4318389999999999    0.4318390000000000    0.1687870000000000 Zr
   0.7949289999999998    0.7949290000000000    0.7969760000000000 Zr
   0.0044070000000000    0.0044070000000000    0.3324680000000000 Zr
   0.8039649999999999    0.8039650000000000    0.3107350000000000 Zr
   0.2050709999999999    0.2050710000000000    0.2030240000000000 Zr
   0.1960349999999999    0.1960350000000000    0.6892650000000001 Zr
   0.6598230000000000    0.6598230000000002    0.0294510000000000 Zr
   0.4999999999999998    0.5000000000000001    0.5000000000000000 Zr
   0.6252799999999998    0.6252799999999999    0.6019060000000001 P
   0.9369689999999999    0.9369690000000002    0.8524780000000000 P
   0.3747200000000000    0.3747200000000001    0.3980940000000000 P
   0.3696059999999999    0.3696060000000000    0.6596470000000001 P
   0.0630310000000000    0.0630310000000000    0.1475220000000000 P
   0.8234229999999999    0.8234230000000001    0.1120060000000000 P
   0.6303940000000000    0.6303940000000001    0.3403530000000000 P
   0.1765769999999999    0.1765770000000000    0.8879940000000001 P
