Mg2 Se2
1.0
   2.1269040000000001   -3.6839059999999999    0.0000000000000000
   2.1269040000000001    3.6839059999999999    0.0000000000000000
   0.0000000000000000    0.0000000000000000    6.8852669999999998
Mg Se
2 2
direct
   0.6666670000000000    0.3333329999999999    0.4987570000000000 Mg
   0.3333330000000000    0.6666670000000000    0.9987570000000000 Mg
   0.6666670000000000    0.3333329999999999    0.8762430000000000 Se
   0.3333330000000000    0.6666670000000000    0.3762430000000000 Se
