Sb14
1.0
  -6.7144810000000001    0.0000000000000000    0.0000000000000000
  -0.1126970000000000   -8.7572910000000004    0.0000000000000000
   2.8819340000000002    2.6095630000000001    8.2263929999999998
Sb
14
direct
   0.0000000000000000    0.0000000000000000    0.0000000000000000 Sb
  -0.0000000000000000    0.5000000000000000    0.5000000000000000 Sb
   0.5000000000000000    0.5000000000000000    0.0000000000000000 Sb
   0.5000000000000000    0.0000000000000000    0.5000000000000000 Sb
   0.3804230000000000    0.2449260000000000    0.1264110000000000 Sb
   0.6195770000000000    0.7550740000000000    0.8735889999999999 Sb
   0.9025260000000001    0.2051710000000000    0.7639590000000001 Sb
   0.0974740000000000    0.7948289999999999    0.2360410000000000 Sb
   0.0308730000000001    0.6226150000000000    0.8808710000000000 Sb
   0.9691270000000000    0.3773850000000000    0.1191290000000000 Sb
   0.5765320000000000    0.3385150000000000    0.4748189999999999 Sb
   0.4234680000000000    0.6614849999999999    0.5251810000000000 Sb
   0.2677380000000000    0.2682560000000000    0.6641449999999999 Sb
   0.7322620000000000    0.7317440000000000    0.3358550000000000 Sb
