Ti2 O4
1.0
   2.7066550000000000    2.7060339999999998    0.0000000000000000
  -2.7066550000000000    2.7060339999999998    0.0000000000000000
   0.0000000000000000    2.6335310000000001    4.7966369999999996
Ti O
2 4
direct
   0.8658900000000000    0.1341100000000001    0.2500000000000000 Ti
   0.1341100000000002    0.8658900000000000    0.7500000000000000 Ti
   0.6687790000000001    0.9112450000000002    0.6671490000000000 O
   0.3312210000000000    0.0887550000000000    0.3328510000000000 O
   0.0887549999999999    0.3312210000000000    0.8328510000000000 O
   0.9112450000000001    0.6687790000000001    0.1671490000000000 O
