Nb30 Ge21
1.0
   6.7777820000000002  -11.7394630000000006    0.0000000000000000
   6.7777820000000002   11.7394630000000006    0.0000000000000000
   0.0000000000000000    0.0000000000000000    5.4661479999999996
Nb Ge
30 21
direct
   0.8252409999999998    0.9126210000000000    0.7286430000000000 Nb
   0.0873790000000000    0.1747590000000000    0.7286430000000000 Nb
   0.0873789999999998    0.9126210000000001    0.7286430000000000 Nb
   0.1747590000000000    0.0873790000000000    0.2713570000000000 Nb
   0.9126209999999998    0.8252410000000000    0.2713570000000000 Nb
   0.9126210000000000    0.0873789999999999    0.2713570000000000 Nb
   0.1593410000000000    0.5796700000000000    0.7733409999999999 Nb
   0.4203299999999998    0.8406590000000000    0.7733409999999999 Nb
   0.4203299999999998    0.5796700000000000    0.7733409999999999 Nb
   0.8406589999999999    0.4203299999999999    0.2266590000000000 Nb
   0.5796700000000000    0.1593410000000000    0.2266590000000000 Nb
   0.5796699999999999    0.4203299999999999    0.2266590000000000 Nb
   0.4912170000000000    0.2456090000000000    0.7676749999999999 Nb
   0.7543909999999999    0.5087830000000000    0.7676749999999999 Nb
   0.7543909999999999    0.2456090000000000    0.7676749999999999 Nb
   0.5087829999999999    0.7543910000000000    0.2323250000000000 Nb
   0.2456089999999999    0.4912170000000000    0.2323250000000000 Nb
   0.2456089999999999    0.7543910000000000    0.2323250000000000 Nb
   0.3364150000000000   -0.0000000000000000    0.4999999999999999 Nb
   0.6635849999999999    0.6635850000000000    0.4999999999999999 Nb
  -0.0000000000000000    0.3364150000000000    0.4999999999999999 Nb
   0.3364150000000000    0.3364150000000000    0.4999999999999999 Nb
  -0.0000000000000001    0.6635850000000000    0.4999999999999999 Nb
   0.6635850000000000   -0.0000000000000000    0.4999999999999999 Nb
   0.3309220000000000   -0.0000000000000000    0.0000000000000000 Nb
   0.6690779999999998    0.6690780000000000    0.0000000000000000 Nb
  -0.0000000000000000    0.3309220000000000    0.0000000000000000 Nb
   0.3309219999999999    0.3309220000000000    0.0000000000000000 Nb
  -0.0000000000000001    0.6690780000000000    0.0000000000000000 Nb
   0.6690780000000000   -0.0000000000000000    0.0000000000000000 Nb
   0.5939430000000000    0.7969720000000000    0.7465859999999999 Ge
   0.2030279999999999    0.4060570000000000    0.7465859999999999 Ge
   0.2030279999999999    0.7969720000000000    0.7465859999999999 Ge
   0.4060569999999999    0.2030280000000000    0.2534139999999999 Ge
   0.7969719999999999    0.5939430000000001    0.2534139999999999 Ge
   0.7969719999999999    0.2030280000000000    0.2534139999999999 Ge
   0.9268860000000000    0.4634430000000001    0.7537880000000000 Ge
   0.5365570000000000    0.0731140000000000    0.7537880000000000 Ge
   0.5365569999999998    0.4634430000000000    0.7537880000000000 Ge
   0.0731139999999999    0.5365570000000000    0.2462120000000000 Ge
   0.4634430000000000    0.9268860000000001    0.2462120000000000 Ge
   0.4634429999999999    0.5365570000000000    0.2462120000000000 Ge
   0.2602809999999999    0.1301410000000000    0.7472990000000000 Ge
   0.8698589999999998    0.7397190000000000    0.7472990000000000 Ge
   0.8698589999999999    0.1301410000000000    0.7472990000000000 Ge
   0.7397189999999999    0.8698589999999999    0.2527010000000000 Ge
   0.1301409999999999    0.2602810000000000    0.2527010000000000 Ge
   0.1301409999999999    0.8698590000000000    0.2527010000000000 Ge
   0.6666669999999999    0.3333330000000000    0.4995260000000000 Ge
   0.3333329999999999    0.6666670000000000    0.5004739999999999 Ge
   0.0000000000000000    0.0000000000000000    0.0000000000000000 Ge
