Se6
1.0
   3.7088990000000002   -5.6442009999999998    0.0000000000000000
   3.7088990000000002    5.6442009999999998    0.0000000000000000
  -4.8804420000000004    0.0000000000000000    4.6684279999999996
Se
6
direct
   0.1048520000000000    0.7308599999999998    0.8624440000000000 Se
   0.7308599999999998    0.8624440000000000    0.1048519999999999 Se
   0.1375559999999999    0.8951480000000001    0.2691400000000000 Se
   0.8951480000000002    0.2691399999999999    0.1375559999999998 Se
   0.8624440000000000    0.1048519999999999    0.7308599999999998 Se
   0.2691400000000001    0.1375560000000001    0.8951480000000001 Se
