Fe4 O8
1.0
   4.9971329999999998   -2.9761720000000000    0.0000000000000000
   4.9971329999999998    2.9761720000000000    0.0000000000000000
   3.2245970000000002    0.0000000000000000    4.8405490000000002
Fe O
4 8
direct
   0.7604330000000000    0.7604330000000000    0.7604330000000000 Fe
   0.8851010000000001    0.3694420000000000    0.3694420000000000 Fe
   0.3694420000000000    0.3694420000000000    0.8851010000000000 Fe
   0.3694420000000000    0.8851010000000001    0.3694420000000000 Fe
   0.6294220000000000    0.1551470000000000    0.6294220000000000 O
   0.6294220000000000    0.6294220000000000    0.1551470000000000 O
   0.1551470000000000    0.6294220000000000    0.6294220000000000 O
   0.6232029999999998    0.6232029999999998    0.6232030000000000 O
   0.1272140000000000    0.1272140000000000    0.1272140000000000 O
   0.5735439999999999    0.1275380000000000    0.1275380000000000 O
   0.1275380000000000    0.1275380000000000    0.5735440000000001 O
   0.1275380000000000    0.5735439999999999    0.1275380000000000 O
