Ca2 Yb6
1.0
   3.9315620000000000   -6.8096649999999999    0.0000000000000000
   3.9315620000000000    6.8096649999999999    0.0000000000000000
   0.0000000000000000    0.0000000000000000    6.1999940000000002
Ca Yb
2 6
direct
   0.3333330000000002    0.6666669999999999    0.7500000000000000 Ca
   0.6666670000000001    0.3333329999999999    0.2500000000000000 Ca
   0.1664910000000000    0.3329820000000000    0.2500000000000000 Yb
   0.6670180000000001    0.8335090000000001    0.2500000000000000 Yb
   0.1664910000000001    0.8335089999999999    0.2500000000000000 Yb
   0.8335090000000003    0.6670179999999999    0.7500000000000000 Yb
   0.3329820000000000    0.1664910000000000    0.7500000000000000 Yb
   0.8335090000000001    0.1664909999999999    0.7500000000000000 Yb
