Zn16 S16
1.0
   1.9261390000000000   -3.3361710000000002    0.0000000000000000
   1.9261390000000000    3.3361710000000002    0.0000000000000000
   0.0000000000000000    0.0000000000000000   50.3989729999999980
Zn S
16 16
direct
   0.3333329999999999    0.6666670000000000    0.6250090000000001 Zn
   0.6666669999999999    0.3333330000000000    0.1250150000000000 Zn
   0.0000000000000000    0.0000000000000000    0.4375120000000000 Zn
   0.3333329999999999    0.6666670000000000    0.0625230000000000 Zn
   0.6666669999999999    0.3333330000000000    0.5000090000000000 Zn
   0.3333329999999999    0.6666670000000000    0.2500070000000000 Zn
   0.6666669999999999    0.3333330000000000    0.3125050000000000 Zn
   0.0000000000000000    0.0000000000000000    0.8125080000000001 Zn
   0.6666669999999999    0.3333330000000000    0.6875130000000002 Zn
   0.0000000000000000    0.0000000000000000    0.1875170000000000 Zn
   0.3333329999999999    0.6666670000000000    0.3750280000000000 Zn
   0.3333329999999999    0.6666670000000000    0.9375130000000000 Zn
   0.0000000000000000    0.0000000000000000    0.5625230000000000 Zn
   0.6666669999999999    0.3333330000000000    0.8750130000000002 Zn
   0.3333329999999999    0.6666670000000000    0.7500270000000001 Zn
   0.0000000000000000    0.0000000000000000    0.0000090000000000 Zn
   0.0000000000000000    0.0000000000000000    0.2343480000000000 S
   0.3333329999999999    0.6666670000000000    0.2968150000000000 S
   0.6666669999999999    0.3333330000000000    0.3593970000000000 S
   0.6666669999999999    0.3333330000000000    0.5468960000000000 S
   0.3333329999999999    0.6666670000000000    0.1093550000000000 S
   0.6666669999999999    0.3333330000000000    0.7343900000000001 S
   0.3333329999999999    0.6666670000000000    0.9843210000000000 S
   0.6666669999999999    0.3333330000000000    0.9218550000000001 S
   0.0000000000000000    0.0000000000000000    0.8593590000000000 S
   0.3333329999999999    0.6666670000000000    0.6718220000000000 S
   0.0000000000000000    0.0000000000000000    0.4843190000000001 S
   0.3333329999999999    0.6666670000000000    0.7968499999999999 S
   0.0000000000000000    0.0000000000000000    0.6093540000000000 S
   0.0000000000000000    0.0000000000000000    0.0468950000000000 S
   0.6666669999999999    0.3333330000000000    0.1718590000000000 S
   0.3333329999999999    0.6666670000000000    0.4218540000000001 S
