Li6 Ni2
1.0
   2.7183120000000001   -4.7082550000000003    0.0000000000000000
   2.7183120000000001    4.7082550000000003    0.0000000000000000
   0.0000000000000000    0.0000000000000000    4.4653210000000003
Li Ni
6 2
direct
   0.1745940000000000    0.3491880000000001    0.2500000000000000 Li
   0.6508119999999999    0.8254060000000001    0.2500000000000000 Li
   0.1745939999999999    0.8254060000000001    0.2500000000000000 Li
   0.8254059999999999    0.6508119999999999    0.7500000000000001 Li
   0.3491880000000000    0.1745940000000000    0.7500000000000001 Li
   0.8254060000000000    0.1745940000000000    0.7500000000000001 Li
   0.3333329999999999    0.6666670000000000    0.7500000000000001 Ni
   0.6666670000000000    0.3333330000000000    0.2500000000000000 Ni
