Ca2 Sn2
1.0
   2.4126880000000002   -5.8004490000000004    0.0000000000000000
   2.4126880000000002    5.8004490000000004    0.0000000000000000
   0.0000000000000000    0.0000000000000000    4.3883099999999997
Ca Sn
2 2
direct
   0.1344540000000002    0.8655459999999999    0.2500000000000000 Ca
   0.8655460000000000    0.1344540000000000    0.7500000000000000 Ca
   0.4147830000000001    0.5852169999999999    0.2500000000000000 Sn
   0.5852170000000001    0.4147830000000000    0.7500000000000000 Sn
