Ta12 O32
1.0
   3.9226559999999999    0.0000000000000000    0.0000000000000000
   0.0000000000000000    9.1085619999999992    0.0000000000000000
   0.0000000000000000    0.0000000000000000   17.0242259999999987
Ta O
12 32
direct
   0.0000000000000000    0.6890630000000000    0.2500000000000000 Ta
   0.0000000000000000    0.3109370000000000    0.7500000000000000 Ta
   0.0000000000000000    0.3991620000000000    0.3701269999999999 Ta
   0.0000000000000000    0.6008380000000000    0.6298729999999999 Ta
   0.0000000000000000    0.3991620000000000    0.1298730000000000 Ta
   0.0000000000000000    0.6008380000000000    0.8701270000000000 Ta
   0.0000000000000000    0.8154160000000000    0.4405390000000000 Ta
   0.0000000000000000    0.1845840000000000    0.5594610000000000 Ta
   0.0000000000000000    0.8154160000000000    0.0594610000000000 Ta
   0.0000000000000000    0.1845840000000000    0.9405390000000000 Ta
   0.0000000000000000    0.0568190000000000    0.2500000000000000 Ta
   0.0000000000000000    0.9431810000000002    0.7500000000000000 Ta
   0.0000000000000000    0.4610940000000000    0.2500000000000000 O
   0.0000000000000000    0.5389060000000000    0.7500000000000000 O
   0.0000000000000000    0.6229300000000000    0.3680520000000000 O
   0.0000000000000000    0.3770700000000000    0.6319480000000000 O
   0.0000000000000000    0.6229300000000000    0.1319480000000000 O
   0.0000000000000000    0.3770700000000000    0.8680519999999999 O
   0.0000000000000000    0.8775579999999999    0.3248090000000000 O
   0.0000000000000000    0.1224420000000000    0.6751909999999999 O
   0.0000000000000000    0.8775579999999999    0.1751910000000000 O
   0.0000000000000000    0.1224420000000000    0.8248090000000000 O
   0.0000000000000000    0.1991600000000000    0.3325299999999999 O
   0.0000000000000000    0.8008400000000000    0.6674699999999999 O
   0.0000000000000000    0.1991600000000000    0.1674700000000000 O
   0.0000000000000000    0.8008400000000000    0.8325300000000000 O
   0.5000000000000000    0.6937810000000000    0.2500000000000000 O
   0.5000000000000000    0.3062190000000000    0.7500000000000000 O
   0.0000000000000000    0.3318420000000000    0.4778950000000000 O
   0.0000000000000000    0.6681580000000000    0.5221050000000000 O
   0.0000000000000000    0.3318420000000000    0.0221050000000000 O
   0.0000000000000000    0.6681580000000000    0.9778949999999998 O
   0.5000000000000000    0.4073000000000000    0.3717760000000000 O
   0.5000000000000000    0.5927000000000000    0.6282240000000000 O
   0.5000000000000000    0.4073000000000000    0.1282240000000000 O
   0.5000000000000000    0.5927000000000000    0.8717760000000000 O
   0.0000000000000000    0.0000000000000000    0.4999999999999999 O
   0.0000000000000000    0.0000000000000000    0.0000000000000000 O
   0.5000000000000000    0.8220480000000000    0.4377679999999999 O
   0.5000000000000000    0.1779520000000000    0.5622320000000000 O
   0.5000000000000000    0.8220480000000000    0.0622320000000000 O
   0.5000000000000000    0.1779520000000000    0.9377679999999999 O
   0.5000000000000000    0.0490950000000000    0.2500000000000000 O
   0.5000000000000000    0.9509050000000000    0.7500000000000000 O
