Al2 As2
1.0
   2.0227650000000001   -3.5035310000000002    0.0000000000000000
   2.0227650000000001    3.5035310000000002    0.0000000000000000
   0.0000000000000000    0.0000000000000000    6.6492410000000000
Al As
2 2
direct
   0.3333329999999999    0.6666670000000000    0.0007600000000000 Al
   0.6666669999999999    0.3333330000000000    0.5007600000000000 Al
   0.3333329999999999    0.6666670000000000    0.3752400000000000 As
   0.6666669999999999    0.3333330000000000    0.8752400000000000 As
