Ti5 S8
1.0
   3.4256110000000000    5.8300580000000002    0.0000000000000000
  -3.4256110000000000    5.8300580000000002    0.0000000000000000
   0.0000000000000000    5.7633330000000003    5.9271510000000003
Ti S
5 8
direct
   0.7363769999999997    0.2636229999999999    0.5000000000000000 Ti
   0.2636229999999999    0.7363769999999997    0.5000000000000000 Ti
   0.7454020000000000    0.7454020000000000    0.0099010000000000 Ti
   0.2545980000000000    0.2545980000000000    0.9900990000000000 Ti
   0.0000000000000000    0.0000000000000000    0.0000000000000000 Ti
   0.4600940000000001    0.4600940000000001    0.3315590000000000 S
   0.5399059999999999    0.5399059999999999    0.6684410000000000 S
   0.5421560000000000    0.0419000000000000    0.1700240000000000 S
   0.4578439999999998    0.9580999999999998    0.8299760000000000 S
   0.9580999999999998    0.4578439999999998    0.8299760000000000 S
   0.0419000000000000    0.5421560000000000    0.1700240000000000 S
   0.9634799999999998    0.9634799999999998    0.3306290000000000 S
   0.0365200000000000    0.0365200000000000    0.6693710000000000 S
