Gd6 Sb8
1.0
  -4.6364130000000001    4.6364130000000001    4.6364130000000001
   4.6364130000000001   -4.6364130000000001    4.6364130000000001
   4.6364130000000001    4.6364130000000001   -4.6364130000000001
Gd Sb
6 8
direct
   0.1249999999999999    0.8750000000000000    0.2499999999999999 Gd
   0.3750000000000000    0.6250000000000000    0.7500000000000000 Gd
   0.8750000000000001    0.2500000000000001    0.1250000000000000 Gd
   0.6250000000000000    0.7500000000000000    0.3750000000000000 Gd
   0.2499999999999999    0.1250000000000000    0.8750000000000001 Gd
   0.7500000000000000    0.3750000000000000    0.6250000000000000 Gd
   0.3381790000000000    0.3381790000000000    0.3381790000000000 Sb
   0.1618210000000000    0.5000000000000000   -0.0000000000000000 Sb
  -0.0000000000000000    0.1618210000000000    0.5000000000000000 Sb
   0.8381790000000000    0.8381790000000000    0.8381790000000000 Sb
   0.5000000000000000    0.0000000000000000    0.1618210000000000 Sb
   0.6618210000000001    0.5000000000000001    0.0000000000000000 Sb
   0.5000000000000001   -0.0000000000000000    0.6618210000000001 Sb
   0.0000000000000000    0.6618210000000001    0.5000000000000001 Sb
