Mg12 Si10
1.0
   5.0301600000000004    0.0000000000000000    0.0000000000000000
  -0.7680000000000000   -5.9246480000000004    0.0000000000000000
  -2.2820170000000002    0.1173830000000000  -13.8186710000000001
Mg Si
12 10
direct
   0.1723550000000000    0.8371419999999999    0.0098610000000000 Mg
   0.7500319999999999    0.8814810000000001    0.4878540000000000 Mg
   0.1668120000000000    0.3702020000000000    0.3616789999999999 Mg
   0.9275700000000001    0.1841980000000000    0.6534540000000000 Mg
   0.0700900000000000    0.4552700000000000    0.8293409999999999 Mg
   0.7432620000000000    0.8970700000000001    0.1445630000000000 Mg
   0.1830270000000000    0.8689490000000000    0.3633660000000000 Mg
   0.2508840000000000    0.6028210000000001    0.5753120000000000 Mg
   0.6246740000000000    0.6355220000000000    0.9235440000000000 Mg
   0.7296530000000000    0.3989850000000000    0.1505260000000000 Mg
   0.1632630000000000    0.3369620000000000    0.0348880000000000 Mg
   0.5970729999999999    0.1350990000000000    0.9200980000000000 Mg
   0.3327220000000000    0.0852800000000000    0.5527400000000000 Si
   0.6549919999999999    0.3969070000000000    0.4895320000000000 Si
   0.2847220000000000    0.0739860000000000    0.1948940000000000 Si
   0.4495709999999999    0.9227220000000002    0.7351029999999998 Si
   0.8056209999999999    0.6770119999999999    0.6744300000000000 Si
   0.6699420000000000    0.6158230000000000    0.3218900000000000 Si
   0.2719500000000000    0.6471819999999999    0.1949360000000000 Si
   0.4980850000000000    0.3650100000000000    0.7355450000000000 Si
   0.0075319999999999    0.9284599999999998    0.8180339999999999 Si
   0.6496000000000000    0.1875870000000000    0.3320009999999999 Si
