W34 O68
1.0
  11.6164187800000001   -0.0396184000000000   -0.7275810500000000
  -0.0677360700000000   11.7382429199999994    0.3688285600000000
  -0.7539159600000001    0.3647871400000000   12.2231001999999993
W O
34 68
direct
   0.4027243800000000    0.0799700000000000    0.3430369000000000 W
   0.7718283799999999    0.0191925000000000    0.0590807900000000 W
   0.3117499300000000    0.5692225700000000    0.1541369800000000 W
   0.9085039900000003    0.4972046500000001    0.1992795100000000 W
   0.4870411200000000    0.3713040200000000    0.2939400200000000 W
   0.8033643600000001    0.2467998300000000    0.7037893900000000 W
   0.1437337200000000    0.0347637600000000    0.2086637800000000 W
   0.0281875600000000    0.2740482100000001    0.4999631900000001 W
   0.9566188200000000    0.0695981200000000    0.9307661900000000 W
   0.0813718700000000    0.1080374800000000    0.6978742699999999 W
   0.7453913000000001    0.6335733400000000    0.9938826500000000 W
   0.1688628700000000    0.8533629200000004    0.6128690900000000 W
   0.5925642800000001    0.7317655100000000    0.7713858700000000 W
   0.2503878000000000    0.3274002700000001    0.7667949099999999 W
   0.6873390700000001    0.3698725200000000    0.0757804200000000 W
   0.6583989900000000    0.5760103000000001    0.2499610300000000 W
   0.6604717000000000    0.1202570600000000    0.4936232800000000 W
   0.5227879900000000    0.3167623400000000    0.8134665599999999 W
   0.8434934100000001    0.5583842600000001    0.7239485500000000 W
   0.8897953600000001    0.9468323900000003    0.6923809800000000 W
   0.1099390000000000    0.5470895500000000    0.6128029800000000 W
   0.5010027500000002    0.8813345200000002    0.9517627600000002 W
   0.7944843700000003    0.4445175900000001    0.4722597000000000 W
   0.8872772399999999    0.2183931700000001    0.2690163800000000 W
   0.3419892800000000    0.5566025900000001    0.4841538900000000 W
   0.9319497400000001    0.9838362200000002    0.4170626300000000 W
   0.3105542500000000    0.2855015800000000    0.5311611300000000 W
   0.3437142600000000    0.8901739200000001    0.1480251800000000 W
   0.9335909700000000    0.7791171000000002    0.2014389300000000 W
   0.4861607800000000    0.9332737900000001    0.6022826200000000 W
   0.5225011200000000    0.1583879100000000    0.0716652700000000 W
   0.2240087100000001    0.0770737200000000    0.9938126200000001 W
   0.1268460700000000    0.6115819300000002    0.2930721300000000 W
   0.1643783200000000    0.3778200400000001    0.2468229400000000 W
   0.1752906500000000    0.2465676800000000    0.6206986200000000 O
   0.6355957700000001    0.7724865900000001    0.9282633500000000 O
   0.8739163300000001    0.8914169199999999    0.3069680900000001 O
   0.4488273400000001    0.6528367100000000    0.5319483400000001 O
   0.0207966300000000    0.1004066100000000    0.5246135200000001 O
   0.7850362000000001    0.3640522500000001    0.2281543700000000 O
   0.9972998400000000    0.3416993100000000    0.1939339600000000 O
   0.0150862800000000    0.8523238900000001    0.6826516400000001 O
   0.0104957700000000    0.6408364700000000    0.1463932400000000 O
   0.4833192400000000    0.8693243800000000    0.7787842900000002 O
   0.7086756600000000    0.1788984300000000    0.0931126300000000 O
   0.7548284299999999    0.6537383900000001    0.8170795900000000 O
   0.8686978500000002    0.9534816000000002    0.8472150400000000 O
   0.2755980600000000    0.4493268800000000    0.6002695500000000 O
   0.6361846000000000    0.5410620900000001    0.0908773900000000 O
   0.8706525999999999    0.1899740700000000    0.8600809400000000 O
   0.0662807100000000    0.8942963600000001    0.1915963000000000 O
   0.9830721899999999    0.4322326200000000    0.5290644500000000 O
   0.5449973400000000    0.3083513600000001    0.1469080000000000 O
   0.4564634700000001    0.0425567900000000    0.1978757100000000 O
   0.2728274500000000    0.5627403000000000    0.0119150200000000 O
   0.1536030700000000    0.3070054000000000    0.4047577800000000 O
   0.0140407700000000    0.0811030600000000    0.3013701300000000 O
   0.3326531800000000    0.8820798300000001    0.5659987400000001 O
   0.1982637000000000    0.7029430400000001    0.6569421700000000 O
   0.2910837000000000    0.9436310900000000    0.2908964800000000 O
   0.5477545900000002    0.0767084800000000    0.6256234400000000 O
   0.8489898900000000    0.9243771300000003    0.5253304900000000 O
   0.2497237100000000    0.1572110200000000    0.2529296500000000 O
   0.1700744800000000    0.6005963400000000    0.4676180900000000 O
   0.8357766700000001    0.4761424500000001    0.0429726800000000 O
   0.5225412900000002    0.9839257100000001    0.4434370900000000 O
   0.3794489300000001    0.3913399500000000    0.8519692900000000 O
   0.3419576400000001    0.1781894300000000    0.0319013900000000 O
   0.5094210700000000    0.6071710299999999    0.7592570100000000 O
   0.0002139800000000    0.7100744300000003    0.3387083500000000 O
   0.1343423000000000    0.4355933900000001    0.7506467100000001 O
   0.6353785500000000    0.4589605300000000    0.3722574900000001 O
   0.8495984699999999    0.8686417400000002    0.0826915300000000 O
   0.0788637100000000    0.1313598000000000    0.0626686600000000 O
   0.3023706700000000    0.6015387500000001    0.3257970200000000 O
   0.3995810500000000    0.4018993500000000    0.4425613000000000 O
   0.4830356600000000    0.5512606500000001    0.2293425100000000 O
   0.5286947500000000    0.1964670100000000    0.3617669900000000 O
   0.2804443000000000    0.7455317500000003    0.1563755100000000 O
   0.8550933400000001    0.3993737000000001    0.7589096400000002 O
   0.6524972700000000    0.2764750600000001    0.7281018400000000 O
   0.3822928600000000    0.2602753300000001    0.6932637400000000 O
   0.2008357000000001    0.9910721200000002    0.6870009000000000 O
   0.0737862100000000    0.8987590300000002    0.4725709500000000 O
   0.8283729800000003    0.5418185500000001    0.3404498800000000 O
   0.7810333500000001    0.0811070000000000    0.6495759400000000 O
   0.8076874200000002    0.1020003000000000    0.3834443400000000 O
   0.5913277200000001    0.0050911300000000    0.0163077100000000 O
   0.1006216800000000    0.9788625000000000    0.9270728299999998 O
   0.1785247800000000    0.1842681400000000    0.8328476300000001 O
   0.7497112600000001    0.5453324500000000    0.5771369100000000 O
   0.9803138700000000    0.6189571400000001    0.6667327700000000 O
   0.3406235200000001    0.1365983000000000    0.4662709700000000 O
   0.6312641100000002    0.3989366200000002    0.9208234300000000 O
   0.6162210900000001    0.8242369900000001    0.6345844800000000 O
   0.3185431100000001    0.3922944500000001    0.1998672800000000 O
   0.3428070000000001    0.9538617200000002    0.9862120400000000 O
   0.7916027700000002    0.6646563000000001    0.1692172200000000 O
   0.7580649500000000    0.2828103100000001    0.5354777900000000 O
   0.4796015000000001    0.8143651799999999    0.0990365100000000 O
   0.9639221500000000    0.2369954300000000    0.6614063900000000 O
   0.5162141100000001    0.1836925600000000    0.9098037500000000 O
