Mg8 Si6
1.0
   4.5718350000000001    0.0624250000000000   -2.2364790000000001
  -3.1986230000000000    7.4384899999999998   -6.3036539999999999
   1.1220380000000001    0.8189240000000000    6.9861120000000003
Mg Si
8 6
direct
   0.4408960000000001    0.7810630000000002    0.5667090000000002 Mg
   0.9467900000000001    0.2209990000000000    0.0357000000000000 Mg
   0.2488490000000001    0.6390270000000001    0.0156320000000001 Mg
   0.4444280000000000    0.4027760000000001    0.5363710000000002 Mg
   0.9380220000000002    0.5850550000000001    0.5351980000000002 Mg
   0.4703590000000001    0.0655970000000000    0.0741010000000000 Mg
   0.7820390000000002    0.4905770000000000    0.0440570000000001 Mg
   0.8899150000000001    0.8877690000000001    0.4540670000000001 Mg
   0.0151680000000000    0.1789530000000000    0.4029540000000000 Si
   0.7019550000000001    0.1880140000000000    0.6068920000000000 Si
   0.7046170000000004    0.7062110000000003    0.9269240000000001 Si
   0.3876360000000000    0.4639900000000001    0.2092220000000001 Si
   0.3267240000000000    0.9545280000000002    0.3551160000000000 Si
   0.9525640000000001    0.9353510000000000    0.9871280000000000 Si
