Al2 Sb2
1.0
   2.2002120000000001   -3.8108789999999999    0.0000000000000000
   2.2002120000000001    3.8108789999999999    0.0000000000000000
   0.0000000000000000    0.0000000000000000    7.2206310000000000
Al Sb
2 2
direct
   0.6666669999999999    0.3333330000000000    0.4999209999999999 Al
   0.3333329999999999    0.6666670000000000    0.9999209999999998 Al
   0.6666669999999999    0.3333330000000000    0.8751789999999999 Sb
   0.3333329999999999    0.6666670000000000    0.3751790000000000 Sb
