Rb1 Br3
1.0
  -2.2413439999999998    2.2413439999999998    7.6026140000000000
   2.2413439999999998   -2.2413439999999998    7.6026140000000000
   2.2413439999999998    2.2413439999999998   -7.6026140000000000
Rb Br
1 3
direct
   0.0000000000000000    0.0000000000000000    0.0000000000000000 Rb
   0.7500000000000000    0.2500000000000001    0.4999999999999999 Br
   0.2500000000000000    0.7500000000000000    0.4999999999999999 Br
   0.5000000000000000    0.5000000000000000    0.0000000000000000 Br
