Pr3 Zn1
1.0
  -2.4323130000000002    2.4323130000000002    5.0695759999999996
   2.4323130000000002   -2.4323130000000002    5.0695759999999996
   2.4323130000000002    2.4323130000000002   -5.0695759999999996
Pr Zn
3 1
direct
   0.7499999999999999    0.2500000000000001    0.4999999999999999 Pr
   0.2500000000000001    0.7499999999999999    0.4999999999999999 Pr
   0.5000000000000000    0.5000000000000000    0.0000000000000000 Pr
   0.0000000000000000    0.0000000000000000    0.0000000000000000 Zn
