Pr3 Al1
1.0
   4.9317859999999998    0.0000000000000000    0.0000000000000000
   0.0000000000000000    4.9317859999999998    0.0000000000000000
   0.0000000000000000    0.0000000000000000    4.9317859999999998
Pr Al
3 1
direct
   0.0000000000000000    0.5000000000000000    0.5000000000000000 Pr
   0.5000000000000000    0.5000000000000000    0.0000000000000000 Pr
   0.5000000000000000    0.0000000000000000    0.5000000000000000 Pr
   0.0000000000000000    0.0000000000000000    0.0000000000000000 Al
