Tc4 F24
1.0
   4.9624720000000000    0.0000000000000000    0.0000000000000000
   0.0000000000000000    8.5565999999999995    0.0000000000000000
   0.0000000000000000    0.0000000000000000    9.3644630000000006
Tc F
4 24
direct
   0.9196660000000000    0.7500000000000000    0.6293930000000000 Tc
   0.0803340000000000    0.2500000000000000    0.3706070000000000 Tc
   0.4196660000000000    0.2500000000000000    0.8706070000000000 Tc
   0.5803340000000000    0.7500000000000000    0.1293930000000000 Tc
   0.2234420000000000    0.7500000000000000    0.5141090000000000 F
   0.7765580000000001    0.2500000000000000    0.4858910000000000 F
   0.7234420000000000    0.2500000000000000    0.9858910000000000 F
   0.2765580000000000    0.7500000000000000    0.0141090000000000 F
   0.6161270000000000    0.7500000000000000    0.7450720000000000 F
   0.3838730000000000    0.2500000000000000    0.2549280000000000 F
   0.1161270000000000    0.2500000000000000    0.7549280000000000 F
   0.8838730000000000    0.7500000000000000    0.2450720000000000 F
   0.7644160000000000    0.5973209999999999    0.5159640000000000 F
   0.2355840000000000    0.4026790000000000    0.4840360000000000 F
   0.2644160000000000    0.4026790000000000    0.9840359999999999 F
   0.2355840000000000    0.0973210000000000    0.4840360000000000 F
   0.7355840000000000    0.5973209999999999    0.0159640000000000 F
   0.7644160000000000    0.9026790000000000    0.5159640000000000 F
   0.7355840000000000    0.9026790000000000    0.0159640000000000 F
   0.2644160000000000    0.0973210000000000    0.9840359999999999 F
   0.0730530000000000    0.5968540000000000    0.7426080000000000 F
   0.9269470000000000    0.4031459999999999    0.2573920000000000 F
   0.5730530000000000    0.4031459999999999    0.7573920000000000 F
   0.9269470000000000    0.0968540000000000    0.2573920000000000 F
   0.4269470000000000    0.5968540000000000    0.2426080000000000 F
   0.0730530000000000    0.9031460000000000    0.7426080000000000 F
   0.4269470000000000    0.9031460000000000    0.2426080000000000 F
   0.5730530000000000    0.0968540000000000    0.7573920000000000 F
