Ga32 Rh6
1.0
   3.2918880000000001  -15.3090119999999992    0.0000000000000000
   3.2918880000000001   15.3090119999999992    0.0000000000000000
   0.0000000000000000    0.0000000000000000    6.5834900000000003
Ga Rh
32 6
direct
   0.9202879999999999    0.0797120000000000    0.5000000000000000 Ga
   0.0797119999999999    0.9202880000000000    0.5000000000000000 Ga
   0.5797119999999999    0.4202879999999999    0.0000000000000000 Ga
   0.4202879999999998    0.5797120000000000    0.0000000000000000 Ga
   0.7590869999999998    0.2409129999999999    0.5000000000000000 Ga
   0.2409129999999998    0.7590870000000000    0.5000000000000000 Ga
   0.7409130000000000    0.2590870000000001    0.0000000000000000 Ga
   0.2590870000000000    0.7409130000000002    0.0000000000000000 Ga
   0.1158720000000000    0.1832160000000000    0.1508450000000000 Ga
   0.8841279999999999    0.8167840000000001    0.1508450000000000 Ga
   0.1832160000000000    0.1158720000000000    0.8491550000000000 Ga
   0.8167839999999998    0.8841280000000001    0.8491550000000000 Ga
   0.3841280000000000    0.3167840000000000    0.3491550000000000 Ga
   0.6158719999999998    0.6832159999999999    0.3491550000000000 Ga
   0.3167840000000000    0.3841280000000001    0.6508450000000001 Ga
   0.6832159999999998    0.6158719999999999    0.6508450000000001 Ga
   0.9722239999999999    0.3517850000000000    0.8381190000000001 Ga
   0.0277759999999999    0.6482150000000000    0.8381190000000001 Ga
   0.3517849999999999    0.9722240000000000    0.1618810000000000 Ga
   0.6482150000000000    0.0277760000000000    0.1618810000000000 Ga
   0.5277760000000000    0.1482150000000000    0.6618810000000001 Ga
   0.4722239999999998    0.8517850000000000    0.6618810000000001 Ga
   0.1482149999999999    0.5277760000000000    0.3381190000000000 Ga
   0.8517849999999999    0.4722239999999999    0.3381190000000000 Ga
   0.2329059999999999    0.4772340000000000    0.6463550000000001 Ga
   0.7670939999999999    0.5227660000000000    0.6463550000000001 Ga
   0.4772339999999999    0.2329060000000000    0.3536450000000000 Ga
   0.5227659999999998    0.7670940000000001    0.3536450000000000 Ga
   0.2670940000000000    0.0227660000000000    0.8536450000000000 Ga
   0.7329059999999998    0.9772340000000000    0.8536450000000000 Ga
   0.0227660000000000    0.2670940000000000    0.1463550000000000 Ga
   0.9772339999999999    0.7329059999999999    0.1463550000000000 Ga
   0.0000000000000000    0.0000000000000000    0.5000000000000000 Rh
   0.4999999999999999    0.5000000000000000    0.0000000000000000 Rh
   0.8401609999999999    0.1598389999999999    0.5000000000000000 Rh
   0.1598389999999998    0.8401610000000000    0.5000000000000000 Rh
   0.6598389999999998    0.3401610000000000    0.0000000000000000 Rh
   0.3401609999999999    0.6598390000000000    0.0000000000000000 Rh
