Mg4 Ni2
1.0
  -3.1101709999999998    3.1101709999999998    2.6465010000000002
   3.1101709999999998   -3.1101709999999998    2.6465010000000002
   3.1101709999999998    3.1101709999999998   -2.6465010000000002
Mg Ni
4 2
direct
   0.6765329999999999    0.8234669999999998    0.5000000000000001 Mg
   0.3234670000000000    0.1765330000000000    0.5000000000000000 Mg
   0.1765330000000001    0.6765330000000001    0.8530650000000001 Mg
   0.8234669999999999    0.3234670000000000    0.1469350000000000 Mg
   0.2500000000000000    0.2500000000000000    0.0000000000000000 Ni
   0.7499999999999999    0.7499999999999999    0.0000000000000000 Ni
