Mg6 Si8
1.0
   5.3469670000000002    0.0000000000000000    0.0000000000000000
   1.1472130000000000    5.8636200000000001    0.0000000000000000
   0.8914660000000000    2.7297380000000002    7.9585220000000003
Mg Si
6 8
direct
   0.8917170000000001    0.8761070000000000    0.6253410000000000 Mg
   0.3832940000000001    0.5993900000000000    0.4500870000000000 Mg
   0.5991240000000000    0.7229700000000001    0.0634190000000000 Mg
   0.6014680000000001    0.2388400000000000    0.0486220000000000 Mg
   0.9032580000000000    0.3738260000000000    0.6232850000000000 Mg
   0.0776010000000001    0.9544409999999999    0.9396280000000000 Mg
   0.1371010000000000    0.4913700000000000    0.1822050000000000 Si
   0.1838230000000000    0.0558930000000000    0.2501510000000000 Si
   0.0639590000000000    0.4786449999999999    0.8943530000000000 Si
   0.4398190000000001    0.6643249999999999    0.7533830000000000 Si
   0.8674520000000000    0.7797840000000000    0.3148800000000000 Si
   0.7530070000000000    0.2813420000000000    0.3372940000000000 Si
   0.3748410000000000    0.0712700000000000    0.5058690000000000 Si
   0.4701770000000000    0.1582340000000000    0.7648150000000000 Si
