Cr4 N8
1.0
   4.6085490000000000    0.0000000000000000    0.0000000000000000
   0.0000000000000000    4.5883680000000000    0.0000000000000000
   0.0000000000000000    0.8131260000000000    8.2437819999999995
Cr N
4 8
direct
   0.0162240000000000    0.1673860000000000    0.3191780000000000 Cr
   0.0162240000000000    0.8326140000000001    0.6808220000000000 Cr
   0.4196870000000000    0.4075889999999999    0.8114780000000000 Cr
   0.4196870000000000    0.5924110000000000    0.1885220000000000 Cr
   0.2427830000000000    0.0832170000000000    0.7847540000000000 N
   0.2427830000000000    0.9167830000000000    0.2152460000000000 N
   0.3128860000000000    0.5000000000000000    0.0000000000000000 N
   0.2677530000000000    0.3957709999999999    0.3702370000000000 N
   0.2677530000000000    0.6042290000000001    0.6297630000000000 N
   0.8777950000000000   -0.0000000000000000    0.5000000000000000 N
   0.7550530000000000    0.5793360000000001    0.7782370000000000 N
   0.7550530000000000    0.4206640000000000    0.2217630000000000 N
