Nb16 O32
1.0
  -7.8765980000000004    7.8765980000000004    3.3698429999999999
   7.8765980000000004   -7.8765980000000004    3.3698429999999999
   7.8765980000000004    7.8765980000000004   -3.3698429999999999
Nb O
16 32
direct
   0.2430410000000001    0.5910390000000000    0.7921580000000001 Nb
   0.2090550000000000    0.6052149999999999    0.1380750000000000 Nb
   0.7008830000000001    0.9930410000000001    0.1520020000000001 Nb
   0.4671410000000001    0.0709800000000000    0.8619250000000002 Nb
   0.0069590000000000    0.1589609999999999    0.7078420000000001 Nb
   0.9290200000000002    0.7909450000000001    0.3961610000000002 Nb
   0.8552150000000002    0.2171410000000001    0.8961610000000001 Nb
   0.4511190000000000    0.2991170000000000    0.2921580000000000 Nb
   0.8410390000000001    0.5488810000000000    0.8479980000000001 Nb
   0.3947850000000000    0.5328589999999999    0.6038390000000000 Nb
   0.0409450000000000    0.1447850000000000    0.3619250000000001 Nb
   0.3209800000000002    0.9590550000000001    0.1038390000000001 Nb
   0.7828590000000002    0.6790200000000001    0.6380750000000001 Nb
   0.7988810000000000    0.4508830000000000    0.2078420000000001 Nb
   0.5491170000000000    0.7569589999999999    0.3479980000000000 Nb
   0.4089610000000002    0.2011190000000000    0.6520020000000002 Nb
   0.4340840000000000    0.4071060000000000    0.2137110000000000 O
   0.9497830000000002    0.7778240000000000    0.7854300000000001 O
   0.5209570000000002    0.9468960000000000    0.8664860000000001 O
   0.6571060000000001    0.9433950000000000    0.4730220000000001 O
   0.8356470000000001    0.0502170000000001    0.8280410000000001 O
   0.0531040000000001    0.9195900000000000    0.5740610000000002 O
   0.5928940000000001    0.8066050000000000    0.0269780000000000 O
   0.0804100000000001    0.6544710000000000    0.1335140000000000 O
   0.3002170000000001    0.9721760000000002    0.7145700000000001 O
   0.7290430000000001    0.8031040000000000    0.6335140000000000 O
   0.2221760000000000    0.0076060000000000    0.1719590000000000 O
   0.3455290000000000    0.4790430000000000    0.4259390000000001 O
   0.5772790000000000    0.2200210000000000    0.0406970000000000 O
   0.4700210000000001    0.9293230000000000    0.1427420000000001 O
   0.0706770000000001    0.2134190000000000    0.5406970000000001 O
   0.7796270000000002    0.5659160000000000    0.9730220000000003 O
   0.4703730000000001    0.1840840000000000    0.5269780000000001 O
   0.9923940000000001    0.1643530000000001    0.2145700000000001 O
   0.6727210000000000    0.5299789999999999    0.4593030000000001 O
   0.1695900000000000    0.0955290000000000    0.3664860000000000 O
   0.4143530000000001    0.6997830000000000    0.6719590000000001 O
   0.9044710000000001    0.2709570000000002    0.0740610000000001 O
   0.4634190000000000    0.4227209999999999    0.6427420000000000 O
   0.8159160000000001    0.3428940000000001    0.2862890000000001 O
   0.1968960000000002    0.8304099999999999    0.9259390000000001 O
   0.7799790000000001    0.8206770000000001    0.3572580000000001 O
   0.7865810000000002    0.3272790000000001    0.8572580000000001 O
   0.1933950000000000    0.2203729999999999    0.7862890000000001 O
   0.0278240000000001    0.7423940000000000    0.3280410000000000 O
   0.0566050000000001    0.5296269999999998    0.7137110000000001 O
   0.2576060000000001    0.5856470000000000    0.2854300000000000 O
   0.1793230000000001    0.5365810000000001    0.9593030000000002 O
