Pb2 Br4
1.0
   7.1708360000000004    0.0000000000000000    0.0000000000000000
   0.0000000000000000    7.1708360000000004    0.0000000000000000
   0.0000000000000000    0.0000000000000000    4.6142519999999996
Pb Br
2 4
direct
   0.0000000000000000    0.0000000000000000    0.0000000000000000 Pb
   0.5000000000000000    0.5000000000000000    0.5000000000000000 Pb
   0.3014990000000000    0.3014990000000000    0.0000000000000000 Br
   0.6985010000000000    0.6985010000000000    0.0000000000000000 Br
   0.1985010000000000    0.8014990000000000    0.5000000000000000 Br
   0.8014990000000000    0.1985010000000000    0.5000000000000000 Br
