Re6 Si2
1.0
   2.7461440000000001   -4.7564609999999998    0.0000000000000000
   2.7461440000000001    4.7564609999999998    0.0000000000000000
   0.0000000000000000    0.0000000000000000    4.4266519999999998
Re Si
6 2
direct
   0.1702890000000001    0.3405780000000000    0.2500000000000000 Re
   0.6594220000000001    0.8297109999999999    0.2500000000000000 Re
   0.1702890000000000    0.8297109999999999    0.2500000000000000 Re
   0.8297110000000000    0.6594220000000000    0.7500000000000000 Re
   0.3405780000000000    0.1702890000000000    0.7500000000000000 Re
   0.8297110000000000    0.1702890000000000    0.7500000000000000 Re
   0.3333330000000000    0.6666670000000000    0.7500000000000000 Si
   0.6666670000000000    0.3333329999999999    0.2500000000000000 Si
