Ca2 Zn6
1.0
   3.1965800000000000   -5.5366400000000002    0.0000000000000000
   3.1965800000000000    5.5366400000000002    0.0000000000000000
   0.0000000000000000    0.0000000000000000    4.6041869999999996
Ca Zn
2 6
direct
   0.6666670000000000    0.3333330000000000    0.2500000000000000 Ca
   0.3333330000000000    0.6666670000000000    0.7500000000000000 Ca
   0.1438170000000000    0.2876350000000000    0.2500000000000000 Zn
   0.7123650000000000    0.8561830000000000    0.2500000000000000 Zn
   0.1438169999999999    0.8561830000000000    0.2500000000000000 Zn
   0.2876350000000000    0.1438170000000000    0.7500000000000000 Zn
   0.8561830000000000    0.1438169999999999    0.7500000000000000 Zn
   0.8561830000000000    0.7123650000000000    0.7500000000000000 Zn
