Co2 Te4
1.0
   3.9181830000000000    0.0000000000000000    0.0000000000000000
   0.0000000000000000    5.3424230000000001    0.0000000000000000
   0.0000000000000000    0.0000000000000000    6.2860230000000001
Co Te
2 4
direct
   0.0000000000000000    0.0000000000000000    0.0000000000000000 Co
   0.5000000000000000    0.5000000000000000    0.5000000000000000 Co
   0.0000000000000000    0.2286110000000000    0.3615740000000000 Te
   0.0000000000000000    0.7713890000000000    0.6384259999999999 Te
   0.5000000000000000    0.7286110000000000    0.1384260000000000 Te
   0.5000000000000000    0.2713890000000000    0.8615740000000000 Te
