V4 O4
1.0
  -3.5921599999999998   -2.5506790000000001   -0.0187180000000000
   1.7857550000000000   -2.5588000000000002   -3.1102240000000001
  -0.8818700000000000   -2.5413280000000000    4.6590819999999997
V O
4 4
direct
   0.4989700000000001    0.4989699999999999   -0.0000000000000001 V
   0.7510300000000000    0.7510289999999999    0.5000000000000000 V
   0.9989670000000002    0.9989680000000000    0.0000000000000000 V
   0.2510330000000000    0.2510330000000001    0.4999999999999999 V
   0.7513330000000001    0.2513270000000000    0.4999930000000000 O
   0.9986730000000000    0.4986670000000000    0.9999929999999999 O
   0.2513270000000000    0.7513330000000001    0.5000070000000000 O
   0.4986670000000001    0.9986720000000000    0.0000070000000000 O
