Ti8 Ni8
1.0
  -3.0790229999999998    3.0790229999999998    5.7673899999999998
   3.0790229999999998   -3.0790229999999998    5.7673899999999998
   3.0790229999999998    3.0790229999999998   -5.7673899999999998
Ti Ni
8 8
direct
   0.7281600000000000    0.7281600000000000    0.0000000000000000 Ti
   0.2718400000000000    0.2718400000000000    0.0000000000000000 Ti
   0.7500000000000001    0.2500000000000000    0.5000000000000000 Ti
   0.2500000000000000    0.7500000000000001    0.5000000000000001 Ti
   0.0000000000000000    0.5000000000000000    0.5000000000000000 Ti
   0.5000000000000000    0.0000000000000000    0.5000000000000000 Ti
   0.5000000000000000    0.5000000000000000    0.0000000000000000 Ti
   0.0000000000000000    0.0000000000000000    0.0000000000000000 Ti
   0.0946840000000000    0.0946840000000000    0.4491560000000000 Ni
   0.6455280000000000    0.6455280000000000    0.5508440000000000 Ni
   0.0946840000000001    0.6455280000000000    0.0000000000000000 Ni
   0.6455280000000000    0.0946840000000000   -0.0000000000000000 Ni
   0.9053160000000000    0.9053160000000000    0.5508440000000000 Ni
   0.3544720000000001    0.3544720000000000    0.4491560000000000 Ni
   0.9053159999999999    0.3544720000000000   -0.0000000000000000 Ni
   0.3544720000000001    0.9053160000000000    0.0000000000000000 Ni
