Tl6 Br2
1.0
   3.4894430000000001   -6.0438929999999997    0.0000000000000000
   3.4894430000000001    6.0438929999999997    0.0000000000000000
   0.0000000000000000    0.0000000000000000    6.2698349999999996
Tl Br
6 2
direct
   0.1673690000000000    0.3347380000000000    0.2500000000000000 Tl
   0.6652620000000000    0.8326310000000001    0.2500000000000000 Tl
   0.1673690000000000    0.8326310000000000    0.2500000000000000 Tl
   0.8326310000000001    0.6652620000000000    0.7499999999999999 Tl
   0.3347380000000000    0.1673690000000000    0.7499999999999999 Tl
   0.8326310000000000    0.1673690000000000    0.7499999999999999 Tl
   0.3333330000000000    0.6666670000000000    0.7499999999999999 Br
   0.6666670000000000    0.3333330000000000    0.2500000000000000 Br
