Li4 Sn10
1.0
  10.3460509999999992    0.0000000000000000    0.0000000000000000
   0.0000000000000000   10.3460509999999992    0.0000000000000000
   0.0000000000000000    0.0000000000000000    3.1585500000000000
Li Sn
4 10
direct
   0.3250750000000000    0.8250749999999999    0.5000000000000000 Li
   0.8250749999999999    0.6749250000000000    0.5000000000000000 Li
   0.1749250000000000    0.3250750000000000    0.5000000000000000 Li
   0.6749250000000000    0.1749250000000000    0.5000000000000000 Li
   0.0681790000000000    0.7951789999999999    0.0000000000000000 Sn
   0.9318209999999999    0.2048210000000000    0.0000000000000000 Sn
   0.7951789999999999    0.9318209999999999    0.0000000000000000 Sn
   0.2048210000000000    0.0681790000000000    0.0000000000000000 Sn
   0.5000000000000000    0.0000000000000000    0.0000000000000000 Sn
   0.0000000000000000    0.5000000000000000    0.0000000000000000 Sn
   0.5681790000000000    0.7048210000000000    0.0000000000000000 Sn
   0.7048210000000000    0.4318210000000000    0.0000000000000000 Sn
   0.2951790000000000    0.5681790000000000    0.0000000000000000 Sn
   0.4318210000000000    0.2951790000000000    0.0000000000000000 Sn
