Cr2 Cl6
1.0
   6.9712909999999999   -3.0229260000000000    0.0000000000000000
   6.9712909999999999    3.0229260000000000    0.0000000000000000
   5.6604749999999999    0.0000000000000000    5.0691230000000003
Cr Cl
2 6
direct
   0.6666830000000001    0.6666830000000001    0.6666830000000000 Cr
   0.3333170000000000    0.3333170000000000    0.3333170000000000 Cr
   0.9342390000000000    0.5773509999999999    0.2910770000000000 Cl
   0.4226490000000001    0.7089230000000001    0.0657610000000000 Cl
   0.5773509999999998    0.2910770000000000    0.9342389999999999 Cl
   0.7089230000000001    0.0657610000000000    0.4226490000000000 Cl
   0.0657610000000000    0.4226490000000001    0.7089230000000000 Cl
   0.2910770000000000    0.9342390000000002    0.5773509999999999 Cl
