Ce4 H11
1.0
  -2.7246610000000002    2.7246610000000002    5.3968460000000000
   2.7246610000000002   -2.7246610000000002    5.3968460000000000
   2.7246610000000002    2.7246610000000002   -5.3968460000000000
Ce H
4 11
direct
   0.5000000000000000    0.0000000000000000    0.5000000000000000 Ce
   0.2587680000000000    0.2587680000000000    0.0000000000000000 Ce
  -0.0000000000000000    0.4999999999999999    0.5000000000000000 Ce
   0.7412320000000000    0.7412320000000000    0.0000000000000000 Ce
   0.6418100000000000    0.1170740000000000    0.0000000000000000 H
   0.3581900000000000    0.3581899999999999    0.4752640000000000 H
   0.1170740000000000    0.6418099999999999   -0.0000000000000000 H
   0.8829260000000000    0.8829259999999999    0.5247360000000000 H
   0.8829259999999999    0.3581900000000000    0.0000000000000000 H
   0.6418100000000000    0.6418099999999999    0.5247360000000000 H
   0.3581900000000000    0.8829259999999999   -0.0000000000000000 H
   0.1170740000000000    0.1170739999999999    0.4752640000000000 H
   0.7500000000000000    0.2500000000000000    0.5000000000000000 H
   0.4999999999999999    0.4999999999999999    0.0000000000000000 H
   0.2500000000000000    0.7499999999999999    0.5000000000000000 H
