Ag2 Sn6
1.0
   3.3867270000000000   -5.8659840000000001    0.0000000000000000
   3.3867270000000000    5.8659840000000001    0.0000000000000000
   0.0000000000000000    0.0000000000000000    5.1556249999999997
Ag Sn
2 6
direct
   0.3333329999999999    0.6666670000000000    0.7499999999999999 Ag
   0.6666670000000000    0.3333329999999999    0.2500000000000000 Ag
   0.1695180000000000    0.3390359999999999    0.2500000000000000 Sn
   0.6609639999999999    0.8304819999999999    0.2500000000000000 Sn
   0.1695180000000000    0.8304820000000001    0.2500000000000000 Sn
   0.8304819999999999    0.6609639999999999    0.7499999999999999 Sn
   0.3390359999999999    0.1695180000000000    0.7499999999999999 Sn
   0.8304820000000001    0.1695180000000000    0.7499999999999999 Sn
