K2 Te6
1.0
   3.3911400000000000   -5.8736280000000001    0.0000000000000000
   3.3911400000000000    5.8736280000000001    0.0000000000000000
   0.0000000000000000    0.0000000000000000    6.4483199999999998
K Te
2 6
direct
   0.3333330000000000    0.6666669999999999    0.7500000000000001 K
   0.6666670000000000    0.3333329999999999    0.2500000000000000 K
   0.8239560000000000    0.1760440000000000    0.7500000000000001 Te
   0.3520880000000001    0.1760440000000000    0.7500000000000001 Te
   0.8239560000000001    0.6479119999999999    0.7500000000000001 Te
   0.1760440000000000    0.8239559999999999    0.2500000000000000 Te
   0.6479120000000000    0.8239560000000000    0.2500000000000000 Te
   0.1760440000000001    0.3520880000000000    0.2500000000000000 Te
