W12 O24
1.0
   3.2711070000000002    5.5986149999999997    0.0000000000000000
  -3.2711070000000002    5.5986149999999997    0.0000000000000000
   0.0000000000000000    0.1267440000000000   15.0314390000000007
W O
12 24
direct
   0.6590120000000000    0.1816330000000000    0.1694140000000000 W
   0.6603599999999998    0.6603599999999998    0.1704930000000000 W
   0.9936439999999999    0.5149340000000000    0.4907290000000001 W
   0.1816330000000000    0.6590119999999999    0.1694140000000000 W
   0.9908439999999998    0.9908439999999998    0.4894790000000001 W
   0.1661250000000000    0.1661250000000000    0.6618500000000002 W
   0.1656530000000000    0.1656530000000000    0.2744730000000000 W
   0.3341749999999999    0.8374869999999999    0.8354930000000000 W
   0.5149339999999999    0.9936439999999999    0.4907290000000001 W
   0.3302519999999999    0.3302519999999999    0.8435080000000000 W
   0.8374870000000000    0.3341750000000000    0.8354930000000000 W
   0.8339040000000000    0.8339040000000000    0.9577930000000000 W
   0.3551259999999999    0.8019739999999999    0.1069040000000000 O
   0.4984490000000000    0.4984490000000000    0.2426070000000000 O
   0.3504830000000000    0.3504830000000000    0.1057390000000000 O
   0.8019739999999999    0.3551260000000000    0.1069040000000000 O
   0.6814570000000000    0.1501820000000001    0.4331650000000001 O
   0.5073670000000000    0.9975190000000000    0.2409920000000000 O
   0.8388119999999998    0.8388119999999998    0.5633130000000000 O
   0.9937250000000000    0.9937250000000000    0.2393870000000000 O
   0.8348260000000000    0.8348260000000000    0.0944260000000000 O
   0.6846419999999999    0.6846419999999999    0.4298900000000000 O
   0.1501820000000001    0.6814569999999999    0.4331650000000001 O
   0.9975190000000000    0.5073670000000000    0.2409920000000000 O
   0.0276040000000000    0.4396880000000000    0.7565350000000000 O
   0.8956670000000000    0.2964939999999999    0.5633860000000002 O
   0.3013430000000000    0.3013430000000000    0.5680390000000000 O
   0.1508520000000000    0.1508520000000000    0.9054510000000001 O
   0.1623910000000000    0.1623910000000000    0.4108440000000000 O
   0.0271850000000000    0.0271850000000000    0.7536620000000001 O
   0.4396880000000000    0.0276040000000000    0.7565350000000000 O
   0.2964939999999999    0.8956669999999999    0.5633860000000002 O
   0.1601559999999999    0.6815529999999999    0.9105390000000000 O
   0.6736370000000000    0.6736370000000000    0.9046720000000000 O
   0.5051499999999999    0.5051499999999999    0.7819170000000001 O
   0.6815530000000000    0.1601560000000000    0.9105390000000000 O
