Fe2 Re6
1.0
   2.7229290000000002   -4.7162519999999999    0.0000000000000000
   2.7229290000000002    4.7162519999999999    0.0000000000000000
   0.0000000000000000    0.0000000000000000    4.3710670000000000
Fe Re
2 6
direct
   0.3333329999999999    0.6666670000000000    0.7500000000000000 Fe
   0.6666669999999999    0.3333330000000000    0.2500000000000000 Fe
   0.1676729999999999    0.3353460000000000    0.2500000000000000 Re
   0.6646539999999999    0.8323270000000000    0.2500000000000000 Re
   0.1676729999999999    0.8323270000000002    0.2500000000000000 Re
   0.8323269999999998    0.6646540000000001    0.7500000000000000 Re
   0.3353459999999999    0.1676730000000000    0.7500000000000000 Re
   0.8323269999999999    0.1676730000000000    0.7500000000000000 Re
