Pr3 Er1
1.0
   5.1792309999999997    0.0000000000000000    0.0000000000000000
   0.0000000000000000    5.1792309999999997    0.0000000000000000
   0.0000000000000000    0.0000000000000000    5.1792309999999997
Pr Er
3 1
direct
   0.0000000000000000    0.5000000000000000    0.5000000000000000 Pr
   0.5000000000000000    0.0000000000000000    0.5000000000000000 Pr
   0.5000000000000000    0.5000000000000000    0.0000000000000000 Pr
   0.0000000000000000    0.0000000000000000    0.0000000000000000 Er
