Zr4 Tc8
1.0
   2.6107920000000000   -4.5220240000000000    0.0000000000000000
   2.6107920000000000    4.5220240000000000    0.0000000000000000
   0.0000000000000000    0.0000000000000000    8.7892250000000001
Zr Tc
4 8
direct
   0.3333330000000000    0.6666669999999999    0.4373510000000000 Zr
   0.6666670000000000    0.3333329999999999    0.5626490000000000 Zr
   0.6666670000000000    0.3333329999999999    0.9373510000000000 Zr
   0.3333330000000000    0.6666669999999999    0.0626490000000000 Zr
   0.0000000000000000    0.0000000000000000    0.5000000000000000 Tc
   0.0000000000000000    0.0000000000000000    0.0000000000000000 Tc
   0.8286159999999999    0.1713840000000000    0.2500000000000000 Tc
   0.8286160000000000    0.6572319999999999    0.2500000000000000 Tc
   0.3427680000000000    0.1713840000000000    0.2500000000000000 Tc
   0.1713840000000000    0.8286159999999999    0.7500000000000000 Tc
   0.1713840000000000    0.3427680000000000    0.7500000000000000 Tc
   0.6572320000000000    0.8286159999999999    0.7500000000000000 Tc
