Si36 C36
1.0
   1.5474049999999999   -2.6801830000000000    0.0000000000000000
   1.5474049999999999    2.6801830000000000    0.0000000000000000
   0.0000000000000000    0.0000000000000000   91.1003570000000025
Si C
36 36
direct
   0.0000000000000000    0.0000000000000000    0.1666580000000000 Si
   0.6666670000000000    0.3333330000000000    0.6110999999999999 Si
   0.3333330000000000    0.6666670000000000    0.9166380000000000 Si
   0.0000000000000000    0.0000000000000000    0.4166549999999999 Si
   0.3333330000000000    0.6666670000000000    0.3611160000000000 Si
   0.6666670000000000    0.3333330000000000    0.2777850000000000 Si
   0.3333330000000000    0.6666670000000000    0.8055650000000000 Si
   0.3333330000000000    0.6666670000000000    0.3055370000000000 Si
   0.6666670000000000    0.3333330000000000    0.7777729999999999 Si
   0.3333330000000000    0.6666670000000000    0.1388640000000000 Si
   0.0000000000000000    0.0000000000000000    0.6666410000000000 Si
   0.3333330000000000    0.6666670000000000    0.0277850000000000 Si
   0.6666670000000000    0.3333330000000000    0.5277720000000000 Si
   0.3333330000000000    0.6666670000000000    0.6388920000000000 Si
   0.0000000000000000    0.0000000000000000    0.8333110000000000 Si
   0.3333330000000000    0.6666670000000000    0.1944450000000000 Si
   0.3333330000000000    0.6666670000000000    0.4722100000000000 Si
   0.6666670000000000    0.3333330000000000    0.1111130000000000 Si
   0.6666670000000000    0.3333330000000000    0.0555320000000000 Si
   0.0000000000000000    0.0000000000000000    0.4999750000000000 Si
   0.6666670000000000    0.3333330000000000    0.2221960000000000 Si
   0.0000000000000000    0.0000000000000000    0.5555620000000000 Si
   0.0000000000000000    0.0000000000000000    0.7222249999999999 Si
   0.0000000000000000    0.0000000000000000    0.0833250000000000 Si
   0.6666670000000000    0.3333330000000000    0.9444330000000000 Si
   0.6666670000000000    0.3333330000000000    0.3888620000000000 Si
   0.6666670000000000    0.3333330000000000    0.6944329999999999 Si
   0.6666670000000000    0.3333330000000000    0.8611040000000000 Si
   0.0000000000000000    0.0000000000000000    0.3333270000000000 Si
   0.3333330000000000    0.6666670000000000    0.5833079999999999 Si
   0.0000000000000000    0.0000000000000000    0.9999900000000000 Si
   0.0000000000000000    0.0000000000000000    0.8888910000000000 Si
   0.6666670000000000    0.3333330000000000    0.4444440000000000 Si
   0.3333330000000000    0.6666670000000000    0.7499769999999999 Si
   0.0000000000000000    0.0000000000000000    0.2499930000000000 Si
   0.3333330000000000    0.6666670000000000    0.9722069999999999 Si
   0.0000000000000000    0.0000000000000000    0.7430599999999999 C
   0.0000000000000000    0.0000000000000000    0.2708830000000000 C
   0.3333330000000000    0.6666670000000000    0.3819500000000000 C
   0.0000000000000000    0.0000000000000000    0.5763910000000000 C
   0.6666670000000000    0.3333330000000000    0.4652819999999999 C
   0.6666670000000000    0.3333330000000000    0.1319490000000000 C
   0.6666670000000000    0.3333330000000000    0.4096980000000000 C
   0.3333330000000000    0.6666670000000000    0.8263950000000000 C
   0.0000000000000000    0.0000000000000000    0.4375500000000000 C
   0.6666670000000000    0.3333330000000000    0.2986120000000000 C
   0.0000000000000000    0.0000000000000000    0.1042180000000000 C
   0.6666670000000000    0.3333330000000000    0.7153280000000000 C
   0.0000000000000000    0.0000000000000000    0.9097280000000000 C
   0.6666670000000000    0.3333330000000000    0.7986620000000000 C
   0.0000000000000000    0.0000000000000000    0.5208090000000000 C
   0.6666670000000000    0.3333330000000000    0.8819959999999999 C
   0.6666670000000000    0.3333330000000000    0.0763700000000000 C
   0.3333330000000000    0.6666670000000000    0.9930229999999999 C
   0.6666670000000000    0.3333330000000000    0.2430300000000000 C
   0.0000000000000000    0.0000000000000000    0.1875460000000000 C
   0.6666670000000000    0.3333330000000000    0.6319870000000000 C
   0.3333330000000000    0.6666670000000000    0.0486190000000000 C
   0.0000000000000000    0.0000000000000000    0.8541420000000000 C
   0.3333330000000000    0.6666670000000000    0.6041440000000000 C
   0.0000000000000000    0.0000000000000000    0.3542140000000000 C
   0.3333330000000000    0.6666670000000000    0.1596930000000000 C
   0.3333330000000000    0.6666670000000000    0.4930640000000000 C
   0.3333330000000000    0.6666670000000000    0.6597210000000000 C
   0.3333330000000000    0.6666670000000000    0.9374739999999999 C
   0.3333330000000000    0.6666670000000000    0.7708090000000000 C
   0.3333330000000000    0.6666670000000000    0.3263660000000000 C
   0.6666670000000000    0.3333330000000000    0.5486680000000000 C
   0.3333330000000000    0.6666670000000000    0.2152790000000000 C
   0.0000000000000000    0.0000000000000000    0.0208890000000000 C
   0.6666670000000000    0.3333330000000000    0.9653289999999999 C
   0.0000000000000000    0.0000000000000000    0.6874680000000000 C
