In3 Sn1
1.0
   1.8754720000000000    2.6792870000000000    0.0000000000000000
  -1.8754720000000000    2.6792870000000000    0.0000000000000000
   0.0000000000000000    2.6767409999999998   10.8656679999999994
In Sn
3 1
direct
   0.5016400000000000    0.5016400000000000    0.7482789999999999 In
  -0.0000000000000000   -0.0000000000000000    0.5000000000000000 In
   0.4983600000000000    0.4983600000000000    0.2517210000000000 In
   0.0000000000000000    0.0000000000000000    0.0000000000000000 Sn
