Sr32 As24
1.0
  11.0509050000000002    0.0000000000000000    0.0000000000000000
   0.0000000000000000   12.2853309999999993    0.0000000000000000
   0.0000000000000000    0.0000000000000000   12.9351360000000000
Sr As
32 24
direct
   0.0000000000000000    0.6025300000000000    0.7938000000000000 Sr
   0.0000000000000000    0.3974700000000000    0.2062000000000000 Sr
   0.0000000000000000    0.1025300000000000    0.7061999999999999 Sr
   0.0000000000000000    0.8974700000000000    0.2938000000000000 Sr
   0.7235760000000000    0.4038230000000000    0.7641390000000000 Sr
   0.7235760000000000    0.5961770000000000    0.2358610000000000 Sr
   0.2764240000000000    0.9038230000000000    0.7358609999999999 Sr
   0.2764240000000000    0.0961770000000000    0.2641390000000000 Sr
   0.2764240000000000    0.5961770000000000    0.2358610000000000 Sr
   0.2764240000000000    0.4038230000000000    0.7641390000000000 Sr
   0.7235760000000000    0.0961770000000000    0.2641390000000000 Sr
   0.7235760000000000    0.9038230000000000    0.7358609999999999 Sr
   0.0000000000000000    0.7742050000000000    0.5765749999999998 Sr
   0.0000000000000000    0.2257950000000000    0.4234250000000000 Sr
   0.0000000000000000    0.2742050000000000    0.9234249999999999 Sr
   0.0000000000000000    0.7257950000000000    0.0765750000000000 Sr
   0.6770380000000000    0.6736550000000000    0.9329449999999999 Sr
   0.6770380000000000    0.3263449999999999    0.0670550000000000 Sr
   0.3229620000000000    0.1736550000000000    0.5670549999999999 Sr
   0.3229620000000000    0.8263450000000000    0.4329450000000000 Sr
   0.3229620000000000    0.3263449999999999    0.0670550000000000 Sr
   0.3229620000000000    0.6736550000000000    0.9329449999999999 Sr
   0.6770380000000000    0.8263450000000000    0.4329450000000000 Sr
   0.6770380000000000    0.1736550000000000    0.5670549999999999 Sr
   0.5000000000000000    0.1231850000000000    0.8678270000000000 Sr
   0.5000000000000000    0.8768150000000000    0.1321730000000000 Sr
   0.5000000000000000    0.6231850000000000    0.6321730000000000 Sr
   0.5000000000000000    0.3768150000000000    0.3678270000000000 Sr
   0.8177420000000000    0.0000000000000000    0.0000000000000000 Sr
   0.1822580000000000    0.5000000000000000    0.4999999999999999 Sr
   0.1822580000000000    0.0000000000000000    0.0000000000000000 Sr
   0.8177420000000000    0.5000000000000000    0.4999999999999999 Sr
   0.8833820000000000    0.5000000000000000    0.0000000000000000 As
   0.1166180000000000    0.0000000000000000    0.4999999999999999 As
   0.1166180000000000    0.5000000000000000    0.0000000000000000 As
   0.8833820000000000    0.0000000000000000    0.4999999999999999 As
   0.5000000000000000    0.8640690000000000    0.8863550000000000 As
   0.5000000000000000    0.1359310000000000    0.1136450000000000 As
   0.5000000000000000    0.3640690000000000    0.6136450000000000 As
   0.5000000000000000    0.6359310000000000    0.3863549999999999 As
   0.2338150000000000    0.8377780000000001    0.1771020000000000 As
   0.2338150000000000    0.1622220000000000    0.8228979999999999 As
   0.7661850000000000    0.3377780000000000    0.3228980000000000 As
   0.7661850000000000    0.6622219999999999    0.6771020000000000 As
   0.7661850000000000    0.1622220000000000    0.8228979999999999 As
   0.7661850000000000    0.8377780000000001    0.1771020000000000 As
   0.2338150000000000    0.6622219999999999    0.6771020000000000 As
   0.2338150000000000    0.3377780000000000    0.3228980000000000 As
   0.5000000000000000    0.4620780000000000    0.9078690000000000 As
   0.5000000000000000    0.5379220000000000    0.0921310000000000 As
   0.5000000000000000    0.9620780000000001    0.5921309999999999 As
   0.5000000000000000    0.0379220000000000    0.4078690000000000 As
   0.0000000000000000    0.8603760000000000    0.8580469999999999 As
   0.0000000000000000    0.1396240000000000    0.1419530000000000 As
   0.0000000000000000    0.3603760000000000    0.6419530000000000 As
   0.0000000000000000    0.6396240000000000    0.3580469999999999 As
