Cr20 O48
1.0
   8.3935250000000003    0.0000000000000000    0.0000000000000000
   0.0000000000000000    8.4336850000000005    0.0000000000000000
   0.0000000000000000    0.0000000000000000   12.2725430000000006
Cr O
20 48
direct
   0.8904900000000000    0.7480560000000001    0.4134160000000000 Cr
   0.3904900000000000    0.7519440000000001    0.0865840000000000 Cr
   0.6095100000000000    0.7480560000000001    0.5865840000000000 Cr
   0.1095100000000000    0.7519440000000001    0.9134160000000001 Cr
   0.1095100000000000    0.2519440000000000    0.5865840000000000 Cr
   0.6095100000000000    0.2480560000000000    0.9134160000000001 Cr
   0.3904900000000000    0.2519440000000000    0.4134160000000000 Cr
   0.8904900000000000    0.2480560000000000    0.0865840000000000 Cr
   0.5285820000000000    0.6101060000000000    0.3285030000000000 Cr
   0.0285820000000000    0.8898940000000001    0.1714970000000000 Cr
   0.9714180000000000    0.6101060000000000    0.6714970000000001 Cr
   0.4714179999999999    0.8898940000000001    0.8285030000000001 Cr
   0.4714179999999999    0.3898940000000000    0.6714970000000001 Cr
   0.9714180000000000    0.1101060000000000    0.8285030000000001 Cr
   0.0285820000000000    0.3898940000000000    0.3285030000000000 Cr
   0.5285820000000000    0.1101060000000000    0.1714970000000000 Cr
   0.7500000000000000    0.1028040000000000    0.5000000000000000 Cr
   0.2500000000000000    0.3971960000000000    0.0000000000000000 Cr
   0.2500000000000000    0.8971960000000000    0.5000000000000000 Cr
   0.7500000000000000    0.6028040000000000    0.0000000000000000 Cr
   0.6437520000000000    0.0086330000000000    0.2456400000000000 O
   0.1437520000000000    0.4913670000000000    0.2543600000000000 O
   0.8562479999999999    0.0086330000000000    0.7543600000000000 O
   0.3562480000000000    0.4913670000000000    0.7456400000000000 O
   0.3562480000000000    0.9913669999999999    0.7543600000000000 O
   0.8562479999999999    0.5086330000000000    0.7456400000000000 O
   0.1437520000000000    0.9913669999999999    0.2456400000000000 O
   0.6437520000000000    0.5086330000000000    0.2543600000000000 O
   0.6237260000000000    0.2198220000000000    0.4309520000000000 O
   0.1237260000000000    0.2801780000000000    0.0690480000000000 O
   0.8762740000000000    0.2198220000000000    0.5690480000000000 O
   0.3762740000000000    0.2801780000000000    0.9309520000000001 O
   0.3762740000000000    0.7801780000000000    0.5690480000000000 O
   0.8762740000000000    0.7198220000000000    0.9309520000000001 O
   0.1237260000000000    0.7801780000000000    0.4309520000000000 O
   0.6237260000000000    0.7198220000000000    0.0690480000000000 O
   0.1451190000000000    0.0156820000000000    0.5802530000000000 O
   0.8548810000000000    0.9843180000000000    0.4197470000000000 O
   0.6451189999999999    0.9843180000000000    0.5802530000000000 O
   0.1451190000000000    0.5156820000000000    0.9197470000000001 O
   0.9156439999999999    0.2735660000000000    0.2479130000000000 O
   0.4156440000000000    0.2264340000000000    0.2520870000000000 O
   0.5843560000000000    0.2735660000000000    0.7520870000000001 O
   0.0843560000000000    0.2264340000000000    0.7479130000000002 O
   0.0843560000000000    0.7264340000000000    0.7520870000000001 O
   0.5843560000000000    0.7735660000000000    0.7479130000000002 O
   0.4156440000000000    0.7264340000000000    0.2479130000000000 O
   0.9156439999999999    0.7735660000000000    0.2520870000000000 O
   0.6473210000000000    0.2220010000000000    0.0790320000000000 O
   0.1473210000000000    0.2779990000000000    0.4209680000000001 O
   0.8526789999999999    0.2220010000000000    0.9209680000000000 O
   0.3526790000000000    0.2779990000000000    0.5790320000000000 O
   0.3526790000000000    0.7779990000000000    0.9209680000000000 O
   0.8526789999999999    0.7220010000000000    0.5790320000000000 O
   0.1473210000000000    0.7779990000000000    0.0790320000000000 O
   0.6473210000000000    0.7220010000000000    0.4209680000000001 O
   0.9127380000000000    0.0149260000000000    0.1011820000000000 O
   0.4127379999999999    0.4850740000000001    0.3988180000000000 O
   0.5872619999999998    0.0149260000000000    0.8988180000000001 O
   0.0872620000000000    0.4850740000000001    0.6011820000000001 O
   0.0872620000000000    0.9850740000000001    0.8988180000000001 O
   0.5872619999999998    0.5149260000000000    0.6011820000000001 O
   0.4127379999999999    0.9850740000000001    0.1011820000000000 O
   0.9127380000000000    0.5149260000000000    0.3988180000000000 O
   0.8548810000000000    0.4843180000000001    0.0802530000000000 O
   0.3548809999999999    0.0156820000000000    0.4197470000000000 O
   0.6451189999999999    0.4843180000000001    0.9197470000000001 O
   0.3548809999999999    0.5156820000000000    0.0802530000000000 O
