Ti8 O16
1.0
   2.9809320000000001    0.0000000000000000    0.0000000000000000
   0.0000000000000000    4.8024500000000003    0.0000000000000000
   0.0000000000000000    0.0000000000000000   18.7076230000000017
Ti O
8 16
direct
   0.2500000000000000    0.0908230000000000    0.5693440000000000 Ti
   0.7500000000000000    0.5905380000000000    0.6880980000000000 Ti
   0.2500000000000000    0.0905380000000000    0.8119019999999999 Ti
   0.7500000000000000    0.5908230000000000    0.9306559999999999 Ti
   0.2500000000000000    0.4091770000000000    0.0693440000000000 Ti
   0.7500000000000000    0.9094620000000000    0.1880980000000000 Ti
   0.2500000000000000    0.4094620000000000    0.3119020000000000 Ti
   0.7500000000000000    0.9091770000000000    0.4306560000000000 Ti
   0.7500000000000000    0.2136950000000000    0.5134990000000000 O
   0.2500000000000000    0.3848890000000000    0.6366169999999999 O
   0.7500000000000000    0.8775910000000000    0.6191190000000000 O
   0.7500000000000000    0.2424810000000000    0.7602199999999999 O
   0.2500000000000000    0.7424809999999999    0.7397800000000000 O
   0.2500000000000000    0.3775910000000000    0.8808810000000000 O
   0.7500000000000000    0.8848890000000000    0.8633829999999999 O
   0.2500000000000000    0.7136950000000000    0.9865009999999999 O
   0.7500000000000000    0.2863050000000000    0.0134990000000000 O
   0.2500000000000000    0.1151110000000000    0.1366170000000000 O
   0.7500000000000000    0.6224090000000000    0.1191190000000000 O
   0.7500000000000000    0.2575190000000000    0.2602200000000000 O
   0.2500000000000000    0.7575190000000001    0.2397800000000000 O
   0.2500000000000000    0.1224090000000000    0.3808810000000000 O
   0.7500000000000000    0.6151110000000000    0.3633830000000000 O
   0.2500000000000000    0.7863050000000000    0.4865010000000000 O
