Sr2 Mg6
1.0
   3.5974130000000000   -6.2309020000000004    0.0000000000000000
   3.5974130000000000    6.2309020000000004    0.0000000000000000
   0.0000000000000000    0.0000000000000000    5.3279069999999997
Sr Mg
2 6
direct
   0.3333330000000000    0.6666670000000000    0.2500000000000000 Sr
   0.6666670000000000    0.3333330000000000    0.7500000000000000 Sr
   0.3063600000000001    0.1531800000000000    0.2500000000000000 Mg
   0.8468200000000000    0.1531800000000000    0.2500000000000000 Mg
   0.8468200000000000    0.6936400000000001    0.2500000000000000 Mg
   0.6936400000000001    0.8468200000000000    0.7500000000000000 Mg
   0.1531800000000000    0.3063600000000001    0.7500000000000000 Mg
   0.1531800000000000    0.8468200000000000    0.7500000000000000 Mg
