Mo40 O112
1.0
   0.0000000000000000    0.0000000000000000    3.8407612100000001
  23.7590164799999997    0.0000000000000000    0.0000000000000000
   0.0000000000000000   23.7590164799999997    0.0000000000000000
Mo O
40 112
direct
   0.5000000000000000    0.2414519400000000    0.0736481700000000 Mo
   0.5000000000000000    0.9263518300000000    0.2414519400000000 Mo
   0.5000000000000000    0.7585480599999999    0.9263518300000000 Mo
   0.5000000000000000    0.0736481700000000    0.7585480599999999 Mo
   0.5000000000000000    0.2585480600000000    0.5736481700000000 Mo
   0.5000000000000000    0.4263518299999999    0.2585480600000000 Mo
   0.5000000000000000    0.7414519400000000    0.4263518299999999 Mo
   0.5000000000000000    0.5736481700000000    0.7414519400000000 Mo
   0.5000000000000000    0.4012246600000000    0.0987753400000000 Mo
   0.5000000000000000    0.9012246599999999    0.4012246600000000 Mo
   0.5000000000000000    0.5987753400000000    0.9012246599999999 Mo
   0.5000000000000000    0.0987753400000000    0.5987753400000000 Mo
   0.5000000000000000    0.0478325800000000    0.3400222800000000 Mo
   0.5000000000000000    0.6599777200000000    0.0478325800000000 Mo
   0.5000000000000000    0.9521674200000000    0.6599777200000000 Mo
   0.5000000000000000    0.3400222800000000    0.9521674200000000 Mo
   0.5000000000000000    0.4521674199999999    0.8400222800000000 Mo
   0.5000000000000000    0.1599777200000000    0.4521674199999999 Mo
   0.5000000000000000    0.5478325800000000    0.1599777200000000 Mo
   0.5000000000000000    0.8400222800000000    0.5478325800000000 Mo
   0.5000000000000000    0.1574590800000000    0.2206060900000000 Mo
   0.5000000000000000    0.7793939099999999    0.1574590800000000 Mo
   0.5000000000000000    0.8425409199999999    0.7793939099999999 Mo
   0.5000000000000000    0.2206060900000000    0.8425409199999999 Mo
   0.5000000000000000    0.3425409200000000    0.7206060900000000 Mo
   0.5000000000000000    0.2793939100000000    0.3425409200000000 Mo
   0.5000000000000000    0.6574590799999999    0.2793939100000000 Mo
   0.5000000000000000    0.7206060900000000    0.6574590799999999 Mo
   0.5000000000000000    0.2984299600000000    0.2015700400000000 Mo
   0.5000000000000000    0.7984299600000000    0.2984299600000000 Mo
   0.5000000000000000    0.7015700399999999    0.7984299600000000 Mo
   0.5000000000000000    0.2015700400000000    0.7015700399999999 Mo
   0.5000000000000000    0.0833023300000000    0.0773267700000000 Mo
   0.5000000000000000    0.9226732299999999    0.0833023300000000 Mo
   0.5000000000000000    0.9166976699999999    0.9226732299999999 Mo
   0.5000000000000000    0.0773267700000000    0.9166976699999999 Mo
   0.5000000000000000    0.4166976700000000    0.5773267700000000 Mo
   0.5000000000000000    0.4226732300000000    0.4166976700000000 Mo
   0.5000000000000000    0.5833023300000000    0.4226732300000000 Mo
   0.5000000000000000    0.5773267700000000    0.5833023300000000 Mo
   0.5000000000000000    0.2241612700000000    0.1616252500000000 O
   0.5000000000000000    0.8383747499999998    0.2241612700000000 O
   0.5000000000000000    0.7758387299999999    0.8383747499999998 O
   0.5000000000000000    0.1616252500000000    0.7758387299999999 O
   0.5000000000000000    0.2758387300000000    0.6616252500000001 O
   0.5000000000000000    0.3383747500000000    0.2758387300000000 O
   0.5000000000000000    0.7241612700000000    0.3383747500000000 O
   0.5000000000000000    0.6616252500000001    0.7241612700000000 O
   0.0000000000000000    0.0462398400000000    0.3376238700000000 O
   0.0000000000000000    0.6623761300000000    0.0462398400000000 O
   0.0000000000000000    0.9537601600000000    0.6623761300000000 O
   0.0000000000000000    0.3376238700000000    0.9537601600000000 O
   0.0000000000000000    0.4537601600000000    0.8376238700000000 O
   0.0000000000000000    0.1623761300000000    0.4537601600000000 O
   0.0000000000000000    0.5462398400000000    0.1623761300000000 O
   0.0000000000000000    0.8376238700000000    0.5462398400000000 O
   0.5000000000000000    0.1664270700000000    0.0614316500000000 O
   0.5000000000000000    0.9385683500000001    0.1664270700000000 O
   0.5000000000000000    0.8335729299999999    0.9385683500000001 O
   0.5000000000000000    0.0614316500000000    0.8335729299999999 O
   0.5000000000000000    0.3335729299999999    0.5614316499999999 O
   0.5000000000000000    0.4385683499999999    0.3335729299999999 O
   0.5000000000000000    0.6664270699999999    0.4385683499999999 O
   0.5000000000000000    0.5614316499999999    0.6664270699999999 O
   0.5000000000000000    0.1125795700000000    0.2830116200000000 O
   0.5000000000000000    0.7169883799999999    0.1125795700000000 O
   0.5000000000000000    0.8874204299999999    0.7169883799999999 O
   0.5000000000000000    0.2830116200000000    0.8874204299999999 O
   0.5000000000000000    0.3874204300000000    0.7830116200000000 O
   0.5000000000000000    0.2169883800000000    0.3874204300000000 O
   0.5000000000000000    0.6125795699999999    0.2169883800000000 O
   0.5000000000000000    0.7830116200000000    0.6125795699999999 O
   0.0000000000000000    0.2988221700000000    0.2011778300000000 O
   0.0000000000000000    0.7988221699999999    0.2988221700000000 O
   0.0000000000000000    0.7011778300000000    0.7988221699999999 O
   0.0000000000000000    0.2011778300000000    0.7011778300000000 O
   0.0000000000000000    0.0871171000000000    0.0795991700000000 O
   0.0000000000000000    0.9204008299999998    0.0871171000000000 O
   0.0000000000000000    0.9128828999999999    0.9204008299999998 O
   0.0000000000000000    0.0795991700000000    0.9128828999999999 O
   0.0000000000000000    0.4128829000000000    0.5795991699999999 O
   0.0000000000000000    0.4204008299999999    0.4128829000000000 O
   0.0000000000000000    0.5871170999999998    0.4204008299999999 O
   0.0000000000000000    0.5795991699999999    0.5871170999999998 O
   0.5000000000000000    0.3890265200000000    0.0223962300000000 O
   0.5000000000000000    0.9776037700000000    0.3890265200000000 O
   0.5000000000000000    0.6109734800000000    0.9776037700000000 O
   0.5000000000000000    0.0223962300000000    0.6109734800000000 O
   0.5000000000000000    0.1109734800000000    0.5223962300000000 O
   0.5000000000000000    0.4776037699999999    0.1109734800000000 O
   0.5000000000000000    0.8890265199999999    0.4776037699999999 O
   0.5000000000000000    0.5223962300000000    0.8890265199999999 O
   0.5000000000000000    0.2723931900000000    0.0037110400000000 O
   0.5000000000000000    0.9962889600000000    0.2723931900000000 O
   0.5000000000000000    0.7276068100000000    0.9962889600000000 O
   0.5000000000000000    0.0037110400000000    0.7276068100000000 O
   0.5000000000000000    0.2276068100000000    0.5037110400000000 O
   0.5000000000000000    0.4962889600000000    0.2276068100000000 O
   0.5000000000000000    0.7723931899999998    0.4962889600000000 O
   0.5000000000000000    0.5037110400000000    0.7723931899999998 O
   0.5000000000000000    0.3152831300000000    0.1155598800000000 O
   0.5000000000000000    0.8844401199999999    0.3152831300000000 O
   0.5000000000000000    0.6847168699999999    0.8844401199999999 O
   0.5000000000000000    0.1155598800000000    0.6847168699999999 O
   0.5000000000000000    0.1847168700000000    0.6155598799999999 O
   0.5000000000000000    0.3844401200000000    0.1847168700000000 O
   0.5000000000000000    0.8152831300000000    0.3844401200000000 O
   0.5000000000000000    0.6155598799999999    0.8152831300000000 O
   0.0000000000000000    0.3978728600000000    0.1021271400000000 O
   0.0000000000000000    0.8978728599999999    0.3978728600000000 O
   0.0000000000000000    0.6021271399999999    0.8978728599999999 O
   0.0000000000000000    0.1021271400000000    0.6021271399999999 O
   0.5000000000000000    0.1071542600000000    0.1614712700000000 O
   0.5000000000000000    0.8385287300000001    0.1071542600000000 O
   0.5000000000000000    0.8928457400000001    0.8385287300000001 O
   0.5000000000000000    0.1614712700000000    0.8928457400000001 O
   0.5000000000000000    0.3928457399999999    0.6614712699999999 O
   0.5000000000000000    0.3385287299999999    0.3928457399999999 O
   0.5000000000000000    0.6071542599999999    0.3385287299999999 O
   0.5000000000000000    0.6614712699999999    0.6071542599999999 O
   0.5000000000000000    0.0050813900000000    0.0813823000000000 O
   0.5000000000000000    0.9186177000000000    0.0050813900000000 O
   0.5000000000000000    0.9949186099999999    0.9186177000000000 O
   0.5000000000000000    0.0813823000000000    0.9949186099999999 O
   0.5000000000000000    0.4949186100000000    0.5813823000000000 O
   0.5000000000000000    0.4186176999999999    0.4949186100000000 O
   0.5000000000000000    0.5050813899999999    0.4186176999999999 O
   0.5000000000000000    0.5813823000000000    0.5050813899999999 O
   0.0000000000000000    0.2441621800000000    0.0780669000000000 O
   0.0000000000000000    0.9219330999999998    0.2441621800000000 O
   0.0000000000000000    0.7558378200000000    0.9219330999999998 O
   0.0000000000000000    0.0780669000000000    0.7558378200000000 O
   0.0000000000000000    0.2558378200000000    0.5780668999999999 O
   0.0000000000000000    0.4219330999999999    0.2558378200000000 O
   0.0000000000000000    0.7441621799999999    0.4219330999999999 O
   0.0000000000000000    0.5780668999999999    0.7441621799999999 O
   0.5000000000000000    0.2357607400000000    0.2642392600000000 O
   0.5000000000000000    0.7357607399999999    0.2357607400000000 O
   0.5000000000000000    0.7642392600000000    0.7357607399999999 O
   0.5000000000000000    0.2642392600000000    0.7642392600000000 O
   0.5000000000000000    0.0977667300000000    0.4022332700000000 O
   0.5000000000000000    0.5977667299999999    0.0977667300000000 O
   0.5000000000000000    0.9022332699999999    0.5977667299999999 O
   0.5000000000000000    0.4022332700000000    0.9022332699999999 O
   0.0000000000000000    0.1637044200000000    0.2204802300000000 O
   0.0000000000000000    0.7795197699999998    0.1637044200000000 O
   0.0000000000000000    0.8362955799999999    0.7795197699999998 O
   0.0000000000000000    0.2204802300000000    0.8362955799999999 O
   0.0000000000000000    0.3362955800000000    0.7204802300000001 O
   0.0000000000000000    0.2795197699999999    0.3362955800000000 O
   0.0000000000000000    0.6637044200000000    0.2795197699999999 O
   0.0000000000000000    0.7204802300000001    0.6637044200000000 O
