Nb2 O6
1.0
   2.3660589999999999   -4.0981350000000001    0.0000000000000000
   2.3660589999999999    4.0981350000000001    0.0000000000000000
   0.0000000000000000    0.0000000000000000    3.7173870000000000
Nb O
2 6
direct
   0.3333330000000000    0.6666670000000000    0.7500000000000000 Nb
   0.6666670000000000    0.3333330000000000    0.2500000000000000 Nb
   0.1811459999999999    0.3622919999999999    0.2500000000000000 O
   0.6377080000000001    0.8188540000000001    0.2500000000000000 O
   0.1811460000000000    0.8188540000000000    0.2500000000000000 O
   0.8188540000000001    0.6377080000000001    0.7500000000000000 O
   0.3622919999999999    0.1811459999999999    0.7500000000000000 O
   0.8188540000000000    0.1811460000000000    0.7500000000000000 O
