Pr3 Er1
1.0
  -2.5914199999999998    2.5914199999999998    5.2232930000000000
   2.5914199999999998   -2.5914199999999998    5.2232930000000000
   2.5914199999999998    2.5914199999999998   -5.2232930000000000
Pr Er
3 1
direct
   0.7500000000000001    0.2500000000000000    0.5000000000000000 Pr
   0.2500000000000000    0.7500000000000001    0.5000000000000001 Pr
   0.5000000000000000    0.5000000000000000    0.0000000000000000 Pr
   0.0000000000000000    0.0000000000000000    0.0000000000000000 Er
