Se8 Cl32
1.0
   5.1683000000000003    8.7316730000000007    0.0000000000000000
  -5.1683000000000003    8.7316730000000007    0.0000000000000000
   0.0000000000000000    7.2515299999999998   14.2019810000000000
Se Cl
8 32
direct
   0.1104920000000000    0.1584360000000000    0.1857880000000000 Se
   0.8415640000000001    0.8895080000000001    0.3142119999999999 Se
   0.8895080000000001    0.8415640000000001    0.8142120000000000 Se
   0.1584360000000000    0.1104920000000001    0.6857880000000000 Se
   0.2644270000000000    0.7413169999999999    0.1159330000000000 Se
   0.2586830000000000    0.7355730000000000    0.3840670000000000 Se
   0.7355730000000000    0.2586829999999999    0.8840669999999999 Se
   0.7413170000000000    0.2644270000000000    0.6159330000000000 Se
   0.2127740000000000    0.2480760000000000    0.0349260000000000 Cl
   0.7519240000000003    0.7872260000000001    0.4650740000000000 Cl
   0.7872260000000000    0.7519240000000000    0.9650740000000000 Cl
   0.2480760000000000    0.2127740000000001    0.5349260000000000 Cl
   0.2195400000000000    0.2369360000000000    0.2434000000000000 Cl
   0.7630640000000000    0.7804600000000000    0.2566000000000000 Cl
   0.7804600000000002    0.7630640000000002    0.7565999999999999 Cl
   0.2369360000000000    0.2195400000000000    0.7433999999999999 Cl
   0.8839060000000000    0.3624400000000001    0.1943700000000000 Cl
   0.6375600000000000    0.1160940000000000    0.3056300000000000 Cl
   0.1160940000000000    0.6375600000000000    0.8056299999999998 Cl
   0.3624400000000002    0.8839060000000001    0.6943700000000000 Cl
   0.3622570000000000    0.8765020000000000    0.1918550000000000 Cl
   0.1234980000000001    0.6377430000000001    0.3081450000000000 Cl
   0.6377429999999999    0.1234980000000001    0.8081450000000000 Cl
   0.8765019999999999    0.3622570000000000    0.6918550000000000 Cl
   0.9945120000000001    0.0089140000000001    0.1341250000000000 Cl
   0.9910860000000000    0.0054879999999999    0.3658750000000000 Cl
   0.0054880000000000    0.9910860000000000    0.8658750000000000 Cl
   0.0089140000000001    0.9945119999999998    0.6341249999999999 Cl
   0.4786670000000000    0.5266079999999999    0.1280640000000000 Cl
   0.4733920000000000    0.5213330000000003    0.3719360000000000 Cl
   0.5213330000000002    0.4733920000000000    0.8719359999999999 Cl
   0.5266080000000000    0.4786670000000000    0.6280640000000000 Cl
   0.1484480000000000    0.6489160000000000    0.0736060000000000 Cl
   0.3510840000000001    0.8515520000000001    0.4263940000000000 Cl
   0.8515520000000002    0.3510840000000000    0.9263939999999999 Cl
   0.6489160000000000    0.1484480000000000    0.5736059999999999 Cl
   0.3598990000000000    0.8616669999999998    0.9724850000000000 Cl
   0.1383330000000001    0.6401010000000000    0.5275150000000000 Cl
   0.6401010000000000    0.1383330000000001    0.0275150000000000 Cl
   0.8616670000000001    0.3598990000000000    0.4724850000000000 Cl
