Si8 O16
1.0
   5.0076229999999997    0.0000000000000000    0.0000000000000000
   0.0000000000000000    8.7341180000000005    0.0000000000000000
   0.0000000000000000    5.6223780000000003    8.2830200000000005
Si O
8 16
direct
   0.8871039999999999    0.8750230000000002    0.2943720000000000 Si
   0.7636510000000000    0.6253900000000000    0.6695540000000000 Si
   0.7363490000000000    0.6253900000000001    0.1695540000000000 Si
   0.6128959999999999    0.8750230000000000    0.7943720000000000 Si
   0.1128960000000000    0.1249769999999999    0.7056280000000001 Si
   0.2636510000000000    0.3746099999999999    0.8304460000000000 Si
   0.2363490000000000    0.3746100000000001    0.3304460000000000 Si
   0.3871040000000000    0.1249770000000000    0.2056280000000000 Si
   0.3509540000000000    0.2872940000000000    0.0157870000000000 O
   0.1490460000000000    0.2872940000000000    0.5157870000000000 O
   0.5162269999999999    0.4841950000000000    0.7121930000000000 O
   0.1719120000000000    0.2096240000000000    0.8113240000000000 O
   0.8065459999999999    0.0507830000000000    0.7382220000000000 O
   0.9837729999999999    0.4841950000000000    0.2121930000000000 O
   0.3065460000000000    0.9492170000000001    0.7617780000000000 O
   0.1934540000000000    0.9492169999999999    0.2617780000000000 O
   0.6719120000000000    0.7903759999999999    0.6886760000000000 O
   0.6490460000000000    0.7127059999999998    0.9842130000000000 O
   0.0162270000000000    0.5158050000000000    0.7878070000000000 O
   0.8509539999999999    0.7127060000000001    0.4842130000000001 O
   0.8280879999999999    0.7903760000000000    0.1886760000000000 O
   0.4837730000000000    0.5158050000000000    0.2878070000000000 O
   0.3280879999999999    0.2096240000000000    0.3113240000000000 O
   0.6934540000000000    0.0507830000000000    0.2382220000000000 O
