Mg3 Bi2
1.0
   2.3610500000000001   -4.0894589999999997    0.0000000000000000
   2.3610500000000001    4.0894589999999997    0.0000000000000000
   0.0000000000000000    0.0000000000000000    7.4489570000000001
Mg Bi
3 2
direct
   0.3333329999999999    0.6666670000000000    0.6291360000000000 Mg
   0.0000000000000000    0.0000000000000000    0.0000000000000000 Mg
   0.6666670000000000    0.3333329999999999    0.3708640000000000 Mg
   0.3333329999999999    0.6666670000000000    0.2206670000000000 Bi
   0.6666670000000000    0.3333329999999999    0.7793330000000001 Bi
