Rb4 Te4
1.0
   4.9469159999999999    0.0000000000000000    0.0000000000000000
   0.0000000000000000    5.9819100000000001    0.0000000000000000
   0.0000000000000000    0.0000000000000000   11.2769890000000004
Rb Te
4 4
direct
   0.5000000000000000    0.6787800000000000    0.8662520000000000 Rb
   0.5000000000000000    0.3212200000000000    0.1337480000000000 Rb
   0.5000000000000000    0.1787800000000000    0.6337480000000000 Rb
   0.5000000000000000    0.8212200000000001    0.3662520000000000 Rb
   0.0000000000000000    0.1412390000000000    0.8976420000000001 Te
   0.0000000000000000    0.8587610000000000    0.1023580000000000 Te
   0.0000000000000000    0.6412390000000000    0.6023579999999999 Te
   0.0000000000000000    0.3587610000000000    0.3976419999999999 Te
