Sm8 B20
1.0
   7.2212069999999997    0.0000000000000000    0.0000000000000000
   0.0000000000000000    7.2133029999999998    0.0000000000000000
   0.0000000000000000    1.5152220000000001    7.0895349999999997
Sm B
8 20
direct
   0.1844030000000000    0.2412110000000000    0.2428880000000000 Sm
   0.8155970000000000    0.7587890000000000    0.7571120000000001 Sm
   0.3155970000000000    0.2412110000000000    0.7428880000000000 Sm
   0.8085679999999998    0.2337070000000000    0.8687640000000001 Sm
   0.6914320000000000    0.2337070000000000    0.3687640000000000 Sm
   0.6844030000000000    0.7587889999999999    0.2571120000000000 Sm
   0.3085680000000000    0.7662930000000000    0.6312360000000000 Sm
   0.1914320000000000    0.7662930000000001    0.1312360000000000 Sm
   0.6726250000000000    0.4974609999999999    0.0395840000000000 B
   0.5383719999999999    0.5028780000000000    0.8268380000000000 B
   0.1726250000000000    0.5025389999999998    0.4604160000000000 B
   0.8273750000000000    0.4974610000000000    0.5395840000000000 B
   0.4100170000000000    0.4990909999999999    0.4100340000000000 B
   0.4982719999999999    0.3162970000000000    0.0376780000000000 B
   0.5075560000000000    0.9215540000000000    0.9310710000000001 B
   0.5017280000000000    0.6837030000000001    0.9623220000000001 B
   0.4616280000000000    0.4971220000000000    0.1731620000000000 B
   0.0075560000000000    0.0784460000000000    0.5689290000000000 B
   0.4924439999999999    0.0784460000000000    0.0689290000000000 B
   0.9924439999999999    0.9215540000000000    0.4310710000000000 B
   0.0899830000000000    0.4990910000000001    0.9100340000000000 B
   0.5899830000000000    0.5009090000000002    0.5899660000000000 B
   0.0383720000000000    0.4971220000000001    0.6731620000000000 B
   0.9616280000000000    0.5028779999999999    0.3268380000000000 B
   0.9982720000000000    0.6837029999999999    0.4623220000000001 B
   0.0017280000000000    0.3162969999999999    0.5376780000000000 B
   0.9100169999999999    0.5009090000000000    0.0899660000000000 B
   0.3273750000000000    0.5025390000000000    0.9604160000000000 B
