Tm1 Zn12
1.0
  -4.3721920000000001    4.3721920000000001    2.7008350000000001
   4.3721920000000001   -4.3721920000000001    2.7008350000000001
   4.3721920000000001    4.3721920000000001   -2.7008350000000001
Tm Zn
1 12
direct
   0.0000000000000000    0.0000000000000000    0.0000000000000000 Tm
   0.0000000000000000    0.0000000000000000    0.5000000000000000 Zn
   0.5000000000000000    0.5000000000000000    0.5000000000000000 Zn
   0.5000000000000000   -0.0000000000000000    0.0000000000000000 Zn
  -0.0000000000000000    0.5000000000000000   -0.0000000000000000 Zn
   0.0000000000000000    0.3523700000000000    0.3523700000000000 Zn
   0.0000000000000000    0.6476300000000000    0.6476300000000000 Zn
   0.6476300000000000    0.0000000000000000    0.6476300000000000 Zn
   0.3523700000000000    0.0000000000000000    0.3523700000000000 Zn
   0.5000000000000001    0.2823760000000000    0.7823760000000000 Zn
   0.4999999999999999    0.7176239999999999    0.2176240000000000 Zn
   0.7176239999999999    0.4999999999999999    0.2176240000000000 Zn
   0.2823760000000001    0.5000000000000001    0.7823760000000000 Zn
