Sr2 O12
1.0
   4.5409249999999997    3.8388810000000002    0.0000000000000000
  -4.5409249999999997    3.8388810000000002    0.0000000000000000
   0.0000000000000000    0.3923080000000000    6.2414079999999998
Sr O
2 12
direct
   0.1915870000000000    0.8084130000000000    0.7500000000000000 Sr
   0.8084130000000002    0.1915870000000000    0.2500000000000000 Sr
   0.9274000000000000    0.7569149999999999    0.4091470000000000 O
   0.2430850000000000    0.0726000000000000    0.0908530000000000 O
   0.0726000000000000    0.2430850000000000    0.5908530000000000 O
   0.7569150000000000    0.9274000000000001    0.9091470000000000 O
   0.7515899999999999    0.5973729999999999    0.4211270000000000 O
   0.4026270000000000    0.2484100000000000    0.0788730000000000 O
   0.2484100000000000    0.4026270000000000    0.5788730000000000 O
   0.5973729999999999    0.7515899999999999    0.9211270000000001 O
   0.9139900000000000    0.4662249999999999    0.9347340000000000 O
   0.5337750000000000    0.0860100000000000    0.5652660000000002 O
   0.0860100000000000    0.5337750000000001    0.0652660000000000 O
   0.4662249999999999    0.9139900000000001    0.4347340000000000 O
