Mg4 Cd2
1.0
   1.5936539999999999    5.9191019999999996    0.0000000000000000
  -1.5936539999999999    5.9191019999999996    0.0000000000000000
   0.0000000000000000    1.8921880000000000    7.0607009999999999
Mg Cd
4 2
direct
   0.3048709999999999    0.3048710000000000    0.1411840000000000 Mg
   0.0272970000000000    0.0272970000000000    0.1978920000000000 Mg
   0.9727030000000000    0.9727030000000000    0.8021080000000002 Mg
   0.6951290000000000    0.6951290000000002    0.8588160000000000 Mg
   0.6377940000000000    0.6377940000000001    0.4724720000000001 Cd
   0.3622060000000000    0.3622060000000000    0.5275280000000000 Cd
