Zr9 Ni11
1.0
  -4.9965650000000004    4.9965650000000004    3.2375850000000002
   4.9965650000000004   -4.9965650000000004    3.2375850000000002
   4.9965650000000004    4.9965650000000004   -3.2375850000000002
Zr Ni
9 11
direct
   0.0000000000000000    0.0000000000000000    0.0000000000000000 Zr
   0.2475590000000000    0.5848210000000001    0.8323800000000000 Zr
   0.4151790000000000    0.2475589999999999    0.6627390000000000 Zr
   0.5848209999999999    0.7524410000000000    0.3372610000000000 Zr
   0.7524410000000000    0.4151790000000000    0.1676200000000000 Zr
   0.3113240000000000    0.9094010000000001    0.2207250000000001 Zr
   0.0905990000000000    0.3113240000000000    0.4019230000000000 Zr
   0.9094010000000001    0.6886760000000000    0.5980770000000000 Zr
   0.6886760000000000    0.0905990000000000    0.7792750000000001 Zr
   0.5000000000000000    0.5000000000000000    0.0000000000000000 Ni
   0.7500000000000000    0.2500000000000000    0.5000000000000000 Ni
   0.2500000000000001    0.7500000000000000    0.5000000000000000 Ni
   0.3245590000000000    0.9819180000000000    0.8951300000000000 Ni
   0.4294290000000000    0.3245590000000000    0.3426410000000000 Ni
   0.9819180000000000    0.0867880000000000    0.6573590000000000 Ni
   0.0867880000000000    0.4294290000000001    0.1048700000000000 Ni
   0.6754410000000000    0.0180820000000001    0.1048700000000000 Ni
   0.5705710000000002    0.6754410000000001    0.6573590000000001 Ni
   0.0180820000000001    0.9132120000000000    0.3426410000000000 Ni
   0.9132120000000000    0.5705710000000001    0.8951300000000000 Ni
