Pd3 W1
1.0
  -1.9432550000000000    1.9432550000000000    4.0379940000000003
   1.9432550000000000   -1.9432550000000000    4.0379940000000003
   1.9432550000000000    1.9432550000000000   -4.0379940000000003
Pd W
3 1
direct
   0.7500000000000001    0.2500000000000001    0.5000000000000001 Pd
   0.2500000000000002    0.7500000000000001    0.5000000000000001 Pd
   0.5000000000000001    0.5000000000000001    0.0000000000000000 Pd
   0.0000000000000000    0.0000000000000000    0.0000000000000000 W
