In40 O60
1.0
  11.8242241499999992    0.3911762500000000    0.0236932600000000
   0.3824224300000000   11.3539348800000006   -0.3111961700000000
   0.0321363500000000   -0.3132890300000000   11.3736883399999993
In O
40 60
direct
   0.8289963099999998    0.4601879599999998    0.1709953100000000 In
   0.2147707300000000    0.9933222299999998    0.0234927400000000 In
   0.4824141099999999    0.8832305699999999    0.1181569200000000 In
   0.9238521399999998    0.4012831299999999    0.9032505000000000 In
   0.0188702000000000    0.6715465499999997    0.9358641200000001 In
   0.7506025499999998    0.0459669800000000    0.6721762600000000 In
   0.1574363800000000    0.2081102300000000    0.8339385200000001 In
   0.3974321999999999    0.2158573199999999    0.0276540700000000 In
   0.2487128100000000    0.6978643599999997    0.1281506100000000 In
   0.7483352699999999    0.5702216400000000    0.4357468900000001 In
   0.3417722999999999    0.9917857999999997    0.6183946600000000 In
   0.6652792399999998    0.1196334500000000    0.2001163600000000 In
   0.8387639099999997    0.3127879099999999    0.6641708100000000 In
   0.0020983000000000    0.9078654099999999    0.1925106300000000 In
   0.2372801499999999    0.2473050799999999    0.4871834700000000 In
   0.7032644799999999    0.2201184299999999    0.9563891500000000 In
   0.5291285700000000   -0.0015666000000000    0.8606352200000000 In
   0.9173061999999997    0.8323249999999998    0.5209322100000000 In
   0.5705786599999998    0.3652218300000000    0.4412244100000000 In
   0.5258342499999998    0.6357565200000000    0.9296942000000000 In
   0.2895644199999999    0.7939320599999999    0.8152082400000000 In
   0.2259014999999999    0.5091867099999999    0.8084899000000001 In
   0.9790339099999996    0.1667248000000000    0.1224661700000000 In
   0.0644323300000000    0.9315928999999996    0.7221131900000000 In
   0.2949762800000000    0.4105192799999999    0.3216388600000000 In
   0.5358806399999999    0.4228801699999998    0.1719527300000000 In
   0.0405639700000000    0.4773231600000000    0.5920104100000000 In
   0.2014528300000000    0.6897269899999998    0.5474090400000000 In
   0.4514157300000000    0.6853972099999998    0.3765062000000000 In
   0.9803101199999997    0.1277596300000000    0.4643888100000000 In
   0.2810152499999999    0.9094393099999998    0.3511390600000000 In
   0.7471952600000000    0.8118138399999998    0.2800786700000000 In
   0.0126028900000000    0.6360621799999998    0.2980222000000000 In
   0.1052526600000000    0.4535697999999999    0.1050546100000000 In
   0.7878165000000000    0.6163184699999998    0.7259161000000000 In
   0.5966999799999999    0.8123017799999999    0.5785941000000000 In
   0.5121172899999998    0.0552324900000000    0.4265733900000000 In
   0.4175258499999999    0.2483242099999999    0.7156043800000000 In
   0.4967992699999999    0.5442288399999999    0.6586499700000000 In
   0.7568480399999999    0.8587440599999999    0.9589470900000000 In
   0.8032576299999998    0.1735401200000000    0.1161582500000000 O
   0.0290964000000000    0.0032930800000000    0.0378579100000000 O
   0.8911603700000000    0.9185108299999999    0.6938412800000000 O
   0.8520181199999998    0.7240963699999998    0.8687166300000001 O
   0.1745371500000000    0.0180533600000000    0.8303173799999999 O
   0.2275684500000000    0.1770173100000000    0.0089356600000000 O
   0.5889113999999999    0.7984761299999998    0.9898549900000000 O
   0.8216097299999996    0.8731827999999999    0.1312755700000000 O
   0.2147253900000000    0.5202542899999999    0.6126367800000000 O
   0.2646791800000000    0.7308317899999996    0.3895920000000000 O
   0.4981180299999999    0.1898993399999999    0.8677004900000000 O
   0.0629522000000000    0.2880998100000000    0.5115150699999998 O
   0.7759049499999998    0.9382833299999999    0.4282895200000000 O
   0.8231340999999999    0.6255937899999999    0.2782942900000000 O
   0.9476171899999999    0.5389802899999999    0.0338881900000000 O
   0.4528512199999998    0.3749361199999999    0.5966078900000000 O
   0.6764354499999999    0.0280492300000000    0.9642435600000000 O
   0.0309775800000000    0.6568939899999998    0.4969513699999999 O
   0.7939644599999998    0.4489479399999998    0.7866729300000002 O
   0.4416491200000000    0.8941684699999998    0.4691956000000000 O
   0.5734746399999999    0.2465071299999999    0.0932636300000000 O
   0.0410073900000000    0.5151615099999999    0.7877981900000000 O
   0.0329920700000000    0.3033466999999999    0.0279608100000000 O
   0.9910587299999998    0.4479763099999998    0.2567875600000000 O
   0.0506428200000000    0.9686327799999997    0.5297087399999999 O
   0.9414890699999998    0.8145365399999996    0.3361493100000000 O
   0.4915124499999999    0.1002939000000000    0.6121269900000000 O
   0.1105949000000000    0.7673190199999999    0.8168052299999999 O
   0.1983914400000000    0.5498371899999999    0.2391020300000000 O
   0.2883987599999999    0.3373285999999999    0.8336139099999998 O
   0.1882677199999999    0.5679522199999999    0.9876546300000000 O
   0.6839167599999998    0.4296788699999999    0.2889288500000000 O
   0.7732733999999997    0.7165214599999999    0.5723825900000000 O
   0.5784617699999999    0.2015171900000000    0.3551852700000001 O
   0.2580893699999999    0.1676292100000000    0.6555314500000000 O
   0.3758523899999999    0.6137086499999999    0.8056325400000000 O
   0.6267220599999999    0.7247620399999999    0.3836129000000000 O
   0.7674188599999999    0.3878539099999999    0.0135756400000000 O
   0.3940970799999999    0.7802794899999999    0.2256386800000000 O
   0.4623767400000000    0.6906064499999999    0.5641325900000000 O
   0.2276917699999999    0.8483040399999999    0.6392397399999999 O
   0.4169303400000000    0.0236883600000000    0.0268096800000000 O
   0.6113412799999999    0.6273144199999999    0.7728463900000001 O
   0.8239014699999999    0.1683448800000000    0.5488064600000001 O
   0.4121625099999999    0.9058074899999998    0.7650693700000000 O
   0.6486979699999998    0.9121826699999998    0.7334861999999999 O
   0.9921268899999997    0.2648159700000000    0.7778617900000000 O
   0.3695139899999999    0.3479628199999999    0.1618891600000000 O
   0.4540152700000000    0.4925487900000000    0.3486105900000000 O
   0.4836212299999999    0.5673515399999999    0.0803929800000000 O
   0.7416535499999997    0.2019675800000000    0.7775274800000000 O
   0.6464417700000000    0.4835866199999999    0.5509887600000000 O
   0.5897664899999999    0.9661785099999998    0.2496826000000000 O
   0.1890999400000000    0.9294523899999998    0.2010145000000000 O
   0.6755946999999998    0.9726117799999997    0.5037878999999998 O
   0.8697296299999999    0.4732195399999999    0.5595532200000000 O
   0.0641389600000000    0.7287494799999998    0.1336840400000000 O
   0.3136626900000000    0.0816319700000000    0.4181544699999999 O
   0.9847472399999997    0.0887314700000000    0.2848726100000000 O
   0.3062953099999999    0.8144974299999997    0.0003399600000000 O
