Ho3 Hg1
1.0
   4.7869479999999998    0.0000000000000000    0.0000000000000000
   0.0000000000000000    4.7869479999999998    0.0000000000000000
   0.0000000000000000    0.0000000000000000    4.7869479999999998
Ho Hg
3 1
direct
   0.5000000000000000    0.0000000000000000    0.0000000000000000 Ho
   0.0000000000000000    0.5000000000000000    0.0000000000000000 Ho
   0.0000000000000000    0.0000000000000000    0.5000000000000000 Ho
   0.5000000000000000    0.5000000000000000    0.5000000000000000 Hg
