Ge24 Os16
1.0
   5.8180170000000002    0.0000000000000000    0.0000000000000000
   0.0000000000000000    9.3467120000000001    0.0000000000000000
   0.0000000000000000    0.0000000000000000   11.6281029999999994
Ge Os
24 16
direct
   0.6001100000000000    0.1052340000000000    0.3680840000000000 Ge
   0.1001100000000000    0.3947660000000001    0.1319160000000000 Ge
   0.8998900000000001    0.1052340000000000    0.6319160000000001 Ge
   0.3998900000000001    0.3947660000000001    0.8680840000000000 Ge
   0.3998900000000001    0.8947660000000001    0.6319160000000001 Ge
   0.8998900000000001    0.6052340000000000    0.8680840000000000 Ge
   0.1001100000000000    0.8947660000000001    0.3680840000000000 Ge
   0.6001100000000000    0.6052340000000000    0.1319160000000000 Ge
   0.9089940000000000    0.0657020000000000    0.1783450000000000 Ge
   0.4089940000000000    0.4342980000000000    0.3216550000000000 Ge
   0.5910060000000000    0.0657020000000000    0.8216550000000001 Ge
   0.0910060000000000    0.4342980000000000    0.6783450000000001 Ge
   0.0910060000000000    0.9342980000000001    0.8216550000000001 Ge
   0.5910060000000000    0.5657020000000000    0.6783450000000001 Ge
   0.4089940000000000    0.9342980000000001    0.1783450000000000 Ge
   0.9089940000000000    0.5657020000000000    0.3216550000000000 Ge
   0.5419600000000000    0.7134980000000000    0.4267640000000000 Ge
   0.0419600000000000    0.7865020000000000    0.0732360000000000 Ge
   0.9580400000000001    0.7134980000000000    0.5732360000000000 Ge
   0.4580400000000000    0.7865020000000000    0.9267640000000000 Ge
   0.4580400000000000    0.2865020000000000    0.5732360000000000 Ge
   0.9580400000000001    0.2134980000000000    0.9267640000000000 Ge
   0.0419600000000000    0.2865020000000000    0.4267640000000000 Ge
   0.5419600000000000    0.2134980000000000    0.0732360000000000 Ge
   0.7500000000000000    0.9254120000000000    0.5000000000000000 Os
   0.2500000000000000    0.5745880000000001    0.0000000000000000 Os
   0.2500000000000000    0.0745880000000000    0.5000000000000000 Os
   0.7500000000000000    0.4254120000000001    0.0000000000000000 Os
   0.7500000000000000    0.4599510000000000    0.5000000000000000 Os
   0.2500000000000000    0.0400490000000000    0.0000000000000000 Os
   0.2500000000000000    0.5400490000000001    0.5000000000000000 Os
   0.7500000000000000    0.9599510000000000    0.0000000000000000 Os
   0.7589770000000000    0.3134870000000000    0.2543100000000000 Os
   0.2589770000000000    0.1865130000000000    0.2456900000000000 Os
   0.7410230000000000    0.3134870000000000    0.7456900000000001 Os
   0.2410230000000000    0.1865130000000000    0.7543100000000000 Os
   0.2410230000000000    0.6865130000000000    0.7456900000000001 Os
   0.7410230000000000    0.8134870000000001    0.7543100000000000 Os
   0.2589770000000000    0.6865130000000000    0.2543100000000000 Os
   0.7589770000000000    0.8134870000000001    0.2456900000000000 Os
