Tb4 S8
1.0
   3.9230600000000000    0.0000000000000000    0.0000000000000000
   0.0000000000000000    7.8591059999999997    0.0000000000000000
   0.0000000000000000    0.0179530000000000    7.9501819999999999
Tb S
4 8
direct
   0.2845900000000000    0.6288519999999999    0.7251000000000000 Tb
   0.7845899999999999    0.8711479999999999    0.2749000000000000 Tb
   0.7154099999999999    0.3711480000000000    0.2749000000000000 Tb
   0.2154100000000000    0.1288520000000000    0.7251000000000000 Tb
   0.2598700000000000    0.6252059999999999    0.3685330000000000 S
   0.7598700000000000    0.8747939999999998    0.6314670000000000 S
   0.7401300000000000    0.3747940000000000    0.6314670000000000 S
   0.2401300000000000    0.1252060000000000    0.3685330000000000 S
   0.8363699999999999    0.6109640000000001    0.9971659999999999 S
   0.3363699999999999    0.8890359999999999    0.0028340000000000 S
   0.1636300000000000    0.3890359999999999    0.0028340000000000 S
   0.6636300000000001    0.1109640000000000    0.9971659999999999 S
