Yb10 Pd4
1.0
   3.2784190000000000    8.1792569999999998    0.0000000000000000
  -3.2784190000000000    8.1792569999999998    0.0000000000000000
   0.0000000000000000    0.9720970000000000    7.5181959999999997
Yb Pd
10 4
direct
   0.0213260000000000    0.7970090000000000    0.9195719999999999 Yb
   0.2029909999999999    0.9786740000000000    0.5804280000000001 Yb
   0.9786740000000002    0.2029910000000000    0.0804280000000000 Yb
   0.7970090000000000    0.0213260000000000    0.4195720000000000 Yb
   0.3643660000000000    0.2015560000000000    0.8191360000000000 Yb
   0.7984440000000000    0.6356340000000001    0.6808640000000000 Yb
   0.6356340000000000    0.7984440000000000    0.1808640000000000 Yb
   0.2015560000000000    0.3643660000000000    0.3191360000000000 Yb
   0.5793900000000000    0.4206100000000000    0.7500000000000000 Yb
   0.4206100000000000    0.5793900000000000    0.2500000000000000 Yb
   0.1829490000000000    0.5965700000000000    0.5807560000000000 Pd
   0.4034300000000000    0.8170510000000000    0.9192440000000000 Pd
   0.8170509999999999    0.4034300000000000    0.4192440000000000 Pd
   0.5965700000000000    0.1829500000000000    0.0807560000000000 Pd
