Cu4 I4
1.0
   8.5775430000000004    0.0000000000000000    0.0000000000000000
   0.0000000000000000    4.2859710000000000    0.0000000000000000
   0.0000000000000000    4.2897470000000002    6.0655190000000001
Cu I
4 4
direct
   0.3770270000000000    0.8395599999999999    0.7237159999999998 Cu
   0.6229730000000000    0.8395600000000000    0.2237159999999998 Cu
   0.8703300000000000    0.7716230000000002    0.7393739999999998 Cu
   0.1296700000000000    0.7716230000000002    0.2393739999999998 Cu
   0.3736770000000000    0.0771970000000003    0.9778809999999999 I
   0.6263230000000000    0.0771970000000000    0.4778809999999999 I
   0.8766190000000000    0.0303200000000001    0.9861279999999999 I
   0.1233810000000000    0.0303200000000001    0.4861279999999999 I
