V5 S8
1.0
   3.3087789999999999    5.6661049999999999    0.0000000000000000
  -3.3087789999999999    5.6661049999999999    0.0000000000000000
   0.0000000000000000    5.5299170000000002    5.7115999999999998
V S
5 8
direct
   0.0000000000000000    0.0000000000000000    0.0000000000000000 V
   0.7068570000000000    0.2931430000000001    0.5000000000000000 V
   0.2931430000000001    0.7068570000000000    0.5000000000000000 V
   0.2744010000000001    0.2744010000000001    0.4915080000000000 V
   0.7255990000000000    0.7255990000000000    0.5084920000000001 V
   0.0171820000000000    0.0171820000000000    0.2891650000000000 S
   0.9828179999999999    0.9828179999999999    0.7108350000000000 S
   0.5576050000000000    0.5576050000000000    0.2190580000000000 S
   0.4423950000000001    0.4423950000000001    0.7809420000000000 S
   0.0391200000000000    0.5399989999999999    0.2477980000000000 S
   0.4600009999999999    0.9608800000000000    0.7522019999999999 S
   0.5399989999999999    0.0391200000000000    0.2477980000000000 S
   0.9608800000000000    0.4600009999999999    0.7522019999999999 S
