Tm2 Te4
1.0
   4.4259069999999996    0.0000000000000000    0.0000000000000000
   0.0000000000000000    4.4259069999999996    0.0000000000000000
   0.0000000000000000    0.0000000000000000    8.7834939999999992
Tm Te
2 4
direct
   0.0000000000000000    0.5000000000000000    0.7291520000000000 Tm
   0.5000000000000000    0.0000000000000000    0.2708480000000000 Tm
   0.0000000000000000    0.0000000000000000    0.0000000000000000 Te
   0.5000000000000000    0.5000000000000000    0.0000000000000000 Te
   0.0000000000000000    0.5000000000000000    0.3720760000000000 Te
   0.5000000000000000    0.0000000000000000    0.6279240000000000 Te
