V12 O24
1.0
   6.0154860000000001   -0.0068520000000000    0.0060050000000000
   3.0019719999999999    5.2025360000000003    0.0072300000000000
   9.0298099999999994    5.2100489999999997   14.3625000000000007
V O
12 24
direct
   0.4892830000000000    0.4891489999999999    0.1655850000000000 V
   0.0052719999999999    0.5087930000000001    0.4962880000000001 V
   0.5172769999999998    0.5016230000000000    0.3242270000000000 V
   0.4860359999999998    0.0234550000000001    0.1667649999999999 V
   0.5016070000000001    0.5117550000000002    0.4939839999999999 V
   0.0259200000000000    0.4905649999999999    0.1646180000000000 V
   0.5063780000000001    0.4955520000000000    0.6628810000000001 V
   0.4994360000000000    0.0050750000000002    0.4967609999999999 V
   0.5025129999999999    0.5007270000000001    0.8249829999999999 V
   0.4881429999999999    0.0079800000000002    0.8364859999999998 V
   0.0067340000000001    0.4906739999999998    0.8358550000000001 V
   0.8761590000000001    0.8749740000000001    0.9557010000000000 V
   0.2341230000000000    0.2331350000000001    0.1069740000000000 O
   0.2335410000000000    0.7125949999999999    0.1055930000000001 O
   0.2566810000000000    0.2587220000000000    0.2420720000000000 O
   0.7085730000000001    0.2359010000000001    0.1068129999999999 O
   0.2686730000000002    0.2772980000000000    0.4182520000000000 O
   0.3062289999999999    0.7235389999999999    0.2474600000000000 O
   0.7478420000000000    0.7461829999999999    0.0855510000000000 O
   0.7274380000000000    0.2983280000000001    0.2486409999999999 O
   0.2782409999999999    0.7029779999999998    0.4162470000000000 O
   0.2693940000000001    0.2772049999999999    0.5632280000000000 O
   0.7009800000000000    0.2681230000000001    0.4165859999999999 O
   0.7283149999999999    0.7240989999999999    0.2483470000000000 O
   0.2685809999999999    0.2703410000000001    0.7542020000000000 O
   0.3033270000000000    0.7472409999999999    0.5729740000000000 O
   0.7368219999999998    0.7317730000000001    0.4288280000000000 O
   0.7292830000000000    0.3057040000000003    0.5763869999999999 O
   0.2729870000000002    0.2750710000000002    0.9037090000000000 O
   0.2839749999999999    0.7038509999999998    0.7485190000000000 O
   0.7066629999999999    0.2783400000000000    0.7506749999999999 O
   0.7449090000000002    0.7383440000000000    0.5707089999999999 O
   0.2287820000000000    0.7634200000000000    0.9125920000000000 O
   0.7643759999999997    0.2291490000000001    0.9122740000000000 O
   0.7114090000000003    0.7142980000000001    0.7819729999999999 O
   0.7624950000000000    0.7624420000000001    0.9121589999999999 O
