Yb3 Co9
1.0
  -2.4896650000000000   -4.3122249999999998    0.0000000000000000
   2.4896650000000000   -4.3122249999999998    0.0000000000000000
   0.0000000000000000   -2.8748170000000002    8.0151610000000009
Yb Co
3 9
direct
   0.1415580000000000    0.1415580000000000    0.5753260000000000 Yb
   0.8584420000000000    0.8584420000000000    0.4246740000000001 Yb
   0.0000000000000000    0.0000000000000000    0.0000000000000000 Yb
   0.0797019999999999    0.5827140000000000    0.7548710000000001 Co
   0.5827140000000000    0.5827140000000000    0.7548710000000001 Co
   0.5827140000000000    0.0797019999999999    0.7548710000000001 Co
   0.9202979999999998    0.4172859999999999    0.2451290000000000 Co
   0.4172860000000000    0.4172860000000000    0.2451290000000000 Co
   0.4172859999999999    0.9202979999999998    0.2451290000000000 Co
   0.3341819999999999    0.3341819999999999    0.9974550000000000 Co
   0.6658180000000000    0.6658180000000000    0.0025450000000000 Co
   0.5000000000000000    0.5000000000000000    0.5000000000000000 Co
