Er20 Si16
1.0
   7.3580290000000002    0.0000000000000000    0.0000000000000000
   0.0000000000000000    7.6330510000000000    0.0000000000000000
   0.0000000000000000    0.0000000000000000   14.4185719999999993
Er Si
20 16
direct
   0.0292440000000000    0.8171980000000001    0.5982320000000000 Er
   0.5292440000000000    0.6828020000000000    0.5982320000000000 Er
   0.3162950000000000    0.8210090000000001    0.1230210000000000 Er
   0.8162950000000000    0.6789910000000000    0.1230210000000000 Er
   0.8532030000000000    0.5124830000000000    0.7500000000000000 Er
   0.4707560000000000    0.3171980000000000    0.0982320000000000 Er
   0.0292440000000000    0.8171980000000001    0.9017679999999999 Er
   0.4707560000000000    0.3171980000000000    0.4017680000000000 Er
   0.6467970000000001    0.0124830000000000    0.2500000000000000 Er
   0.5292440000000000    0.6828020000000000    0.9017679999999999 Er
   0.6837050000000001    0.1789910000000000    0.8769789999999998 Er
   0.1837050000000000    0.3210090000000000    0.6230210000000000 Er
   0.1837050000000000    0.3210090000000000    0.8769789999999998 Er
   0.8162950000000000    0.6789910000000000    0.3769790000000000 Er
   0.3162950000000000    0.8210090000000001    0.3769790000000000 Er
   0.3532030000000000    0.9875170000000000    0.7500000000000000 Er
   0.6837050000000001    0.1789910000000000    0.6230210000000000 Er
   0.1467970000000000    0.4875170000000000    0.2500000000000000 Er
   0.9707560000000001    0.1828020000000000    0.0982320000000000 Er
   0.9707560000000001    0.1828020000000000    0.4017680000000000 Er
   0.6462720000000000    0.9718780000000001    0.4593830000000000 Si
   0.2341350000000000    0.6287980000000001    0.7500000000000000 Si
   0.3537280000000000    0.0281220000000000    0.5406170000000000 Si
   0.0188670000000000    0.8962030000000000    0.2500000000000000 Si
   0.7341350000000000    0.8712020000000000    0.7500000000000000 Si
   0.2658650000000000    0.1287980000000000    0.2500000000000000 Si
   0.8537280000000000    0.4718780000000000    0.5406170000000000 Si
   0.4811330000000000    0.3962030000000001    0.7500000000000000 Si
   0.1462720000000000    0.5281220000000000    0.4593830000000000 Si
   0.1462720000000000    0.5281220000000000    0.0406170000000000 Si
   0.9811330000000000    0.1037970000000000    0.7500000000000000 Si
   0.7658650000000001    0.3712020000000000    0.2500000000000000 Si
   0.3537280000000000    0.0281220000000000    0.9593830000000000 Si
   0.8537280000000000    0.4718780000000000    0.9593830000000000 Si
   0.6462720000000000    0.9718780000000001    0.0406170000000000 Si
   0.5188670000000000    0.6037970000000001    0.2500000000000000 Si
