Pr16 S24
1.0
  -4.3314990000000000    4.3314990000000000   12.9497479999999996
   4.3314990000000000   -4.3314990000000000   12.9497479999999996
   4.3314990000000000    4.3314990000000000  -12.9497479999999996
Pr S
16 24
direct
   0.4949600000000000    0.6250000000000000    0.3699600000000000 Pr
   0.2186250000000000    0.8229969999999999    0.1201050000000000 Pr
   0.9158199999999999    0.4158200000000001    0.4999999999999999 Pr
   0.2550399999999999    0.1249999999999999    0.6300400000000000 Pr
   0.8341800000000000    0.8341800000000000    0.0000000000000000 Pr
   0.0471080000000001    0.4270030000000000    0.8956270000000000 Pr
   0.8485199999999999    0.9528919999999997    0.3798949999999999 Pr
   0.5313750000000000    0.1514800000000000    0.1043730000000000 Pr
   0.5729969999999999    0.4686250000000000    0.6201050000000000 Pr
   0.1658200000000000    0.1658200000000000    0.0000000000000000 Pr
   0.1770030000000000    0.2971079999999999    0.3956270000000000 Pr
   0.3750000000000000    0.7449599999999998    0.8699600000000000 Pr
   0.8749999999999999    0.5050400000000000    0.1300400000000000 Pr
   0.5841800000000001    0.0841800000000000    0.5000000000000001 Pr
   0.9014799999999999    0.7813750000000000    0.6043730000000000 Pr
   0.7028920000000000    0.0985200000000000    0.8798950000000001 Pr
   0.5764580000000000    0.3215500000000000    0.1073940000000000 S
   0.8607490000000000    0.7577049999999999    0.7525680000000000 S
   0.2141560000000000    0.4690639999999998    0.8926060000000000 S
   0.5358440000000001    0.9284500000000001    0.7549080000000001 S
   0.1735419999999999    0.7809359999999999    0.2450919999999999 S
   0.0051370000000000    0.1081810000000000    0.2474320000000000 S
   0.7448630000000001    0.4922950000000000    0.6030440000000000 S
   0.9020069999999999    0.6529320000000000    0.0873190000000000 S
   0.1853120000000001    0.0979930000000000    0.7509250000000000 S
   0.8892510000000000    0.1418190000000000    0.3969560000000000 S
   0.5656120000000000    0.8146879999999999    0.9126810000000000 S
   0.8581810000000000    0.2551370000000000    0.7474320000000000 S
   0.5077050000000000    0.1107490000000000    0.2525680000000000 S
   0.3470680000000000    0.4343879999999999    0.2490750000000000 S
   0.0715500000000000    0.8264579999999999    0.6073940000000000 S
   0.2422950000000000    0.9948629999999999    0.1030440000000000 S
   0.5309360000000000    0.4235419999999999    0.7450920000000000 S
   0.2190640000000000    0.4641560000000000    0.3926060000000001 S
   0.8918190000000000    0.1392510000000000    0.8969560000000000 S
   0.1843879999999999    0.5970679999999999    0.7490750000000000 S
   0.8479929999999998    0.4353119999999999    0.2509250000000000 S
   0.6784500000000001    0.7858440000000001    0.2549080000000000 S
   0.4029320000000000    0.1520070000000000    0.5873190000000000 S
   0.5646880000000000    0.8156119999999999    0.4126810000000001 S
