Pr2 Hg6
1.0
   3.4383170000000001   -5.9553390000000004    0.0000000000000000
   3.4383170000000001    5.9553390000000004    0.0000000000000000
   0.0000000000000000    0.0000000000000000    5.0813290000000002
Pr Hg
2 6
direct
   0.3333330000000001    0.6666669999999999    0.7500000000000000 Pr
   0.6666670000000001    0.3333329999999999    0.2500000000000000 Pr
   0.1628870000000000    0.3257749999999999    0.2500000000000000 Hg
   0.6742250000000000    0.8371130000000000    0.2500000000000000 Hg
   0.1628870000000000    0.8371129999999999    0.2500000000000000 Hg
   0.8371130000000001    0.6742249999999999    0.7500000000000000 Hg
   0.3257750000000000    0.1628869999999999    0.7500000000000000 Hg
   0.8371130000000000    0.1628869999999999    0.7500000000000000 Hg
