Ce14 Pt6
1.0
   4.9884959999999996   -8.6403280000000002    0.0000000000000000
   4.9884959999999996    8.6403280000000002    0.0000000000000000
   0.0000000000000000    0.0000000000000000    6.1764960000000002
Ce Pt
14 6
direct
   0.6666670000000000    0.3333330000000000    0.5680680000000000 Ce
   0.3333330000000000    0.6666670000000000    0.0680680000000000 Ce
   0.8705830000000000    0.7411650000000000    0.7538410000000000 Ce
   0.2588350000000000    0.1294170000000000    0.7538410000000000 Ce
   0.8705830000000000    0.1294170000000000    0.7538410000000000 Ce
   0.1294170000000000    0.2588350000000000    0.2538410000000000 Ce
   0.7411650000000000    0.8705830000000000    0.2538410000000000 Ce
   0.1294170000000000    0.8705830000000000    0.2538410000000000 Ce
   0.4630900000000001    0.9261790000000000    0.5357520000000000 Ce
   0.0738210000000000    0.5369100000000000    0.5357520000000000 Ce
   0.4630900000000001    0.5369100000000000    0.5357520000000000 Ce
   0.5369100000000000    0.0738210000000000    0.0357520000000000 Ce
   0.9261790000000000    0.4630900000000001    0.0357520000000000 Ce
   0.5369100000000000    0.4630900000000001    0.0357520000000000 Ce
   0.1882860000000000    0.3765720000000000    0.8019560000000000 Pt
   0.6234280000000000    0.8117139999999999    0.8019560000000000 Pt
   0.1882860000000001    0.8117140000000002    0.8019560000000000 Pt
   0.8117139999999999    0.6234280000000000    0.3019560000000000 Pt
   0.3765720000000000    0.1882860000000000    0.3019560000000000 Pt
   0.8117140000000002    0.1882860000000001    0.3019560000000000 Pt
