Ca5 Mg1
1.0
   1.9180800000000000   -9.8223819999999993    0.0000000000000000
   1.9180800000000000    9.8223819999999993    0.0000000000000000
   0.0000000000000000    0.0000000000000000    6.1466550000000000
Ca Mg
5 1
direct
   0.0007759999999998    0.9992240000000002    0.0000000000000000 Ca
   0.3288169999999999    0.6711830000000001    0.0000000000000000 Ca
   0.6699929999999997    0.3300070000000000    0.0000000000000000 Ca
   0.1211889999999998    0.8788120000000001    0.4999999999999999 Ca
   0.4348219999999999    0.5651780000000001    0.4999999999999999 Ca
   0.7777359999999999    0.2222640000000001    0.4999999999999999 Mg
