Mg8 Si12
1.0
   4.5392289999999997    0.0000000000000000    0.0000000000000000
  -2.1895790000000002    5.0143000000000004    0.0000000000000000
  -2.0146400000000000   -1.3491050000000000   15.2730460000000008
Mg Si
8 12
direct
   0.7241970000000000    0.6089740000000000    0.7381040000000000 Mg
   0.8554240000000001    0.3789950000000000    0.2347390000000000 Mg
   0.9829220000000001    0.9372239999999999    0.9318180000000000 Mg
   0.5807450000000000    0.9916560000000001    0.0632940000000000 Mg
   0.5684360000000001    0.7856260000000000    0.2542880000000000 Mg
   0.0467840000000000    0.2334870000000000    0.7644990000000000 Mg
   0.8676199999999998    0.2196780000000000    0.4262440000000000 Mg
   0.7936470000000001    0.9061170000000000    0.5738400000000000 Mg
   0.2852360000000000    0.5237110000000001    0.9420790000000000 Si
   0.3050320000000000    0.3910790000000000    0.1054770000000000 Si
   0.6698130000000000    0.3202490000000000    0.8978490000000000 Si
   0.8675970000000000    0.5632900000000001    0.0574250000000000 Si
   0.2670200000000000    0.1096620000000000    0.3268920000000000 Si
   0.3904570000000001    0.0000690000000000    0.6752020000000000 Si
   0.5340990000000000    0.5596980000000001    0.4110820000000000 Si
   0.4939399999999999    0.3218670000000000    0.5564329999999998 Si
   0.1538160000000000    0.7903730000000001    0.4401900000000000 Si
   0.1087270000000000    0.5324520000000000    0.6029809999999999 Si
   0.3898810000000000    0.8610650000000001    0.8297570000000000 Si
   0.1144550000000001    0.9647950000000000    0.1679050000000000 Si
