Al16 Fe10
1.0
  -4.4074619999999998    4.4074619999999998    4.4074619999999998
   4.4074619999999998   -4.4074619999999998    4.4074619999999998
   4.4074619999999998    4.4074619999999998   -4.4074619999999998
Al Fe
16 10
direct
   0.2115410000000000    0.0000000000000000    0.0000000000000000 Al
   0.0000000000000000    0.2115410000000000   -0.0000000000000000 Al
  -0.0000000000000000   -0.0000000000000000    0.2115410000000000 Al
   0.7884590000000000    0.7884590000000000    0.7884590000000000 Al
   0.3493150000000000    0.7274520000000001   -0.0000000000000000 Al
   0.6218630000000001    0.2725480000000000    0.2725480000000000 Al
   0.3493150000000000   -0.0000000000000000    0.7274520000000001 Al
   0.7274520000000001    0.3493150000000000    0.0000000000000000 Al
   0.0000000000000000    0.3493150000000000    0.7274520000000000 Al
   0.2725480000000000    0.6218630000000001    0.2725480000000000 Al
   0.2725480000000000    0.2725480000000000    0.6218630000000001 Al
   0.0000000000000000    0.7274520000000000    0.3493150000000000 Al
   0.7274520000000000    0.0000000000000000    0.3493150000000000 Al
   0.6506850000000001    0.6506850000000000    0.3781370000000000 Al
   0.3781370000000001    0.6506850000000001    0.6506850000000000 Al
   0.6506850000000001    0.3781370000000001    0.6506850000000000 Al
   0.6624810000000000   -0.0000000000000000   -0.0000000000000000 Fe
  -0.0000000000000000    0.6624810000000000    0.0000000000000000 Fe
   0.0000000000000000    0.0000000000000000    0.6624810000000000 Fe
   0.3375190000000000    0.3375190000000000    0.3375190000000000 Fe
   0.0000000000000000    0.6401690000000000    0.6401690000000000 Fe
   0.3598310000000000    0.0000000000000000    0.3598310000000000 Fe
   0.3598310000000000    0.3598310000000000    0.0000000000000000 Fe
   0.0000000000000000    0.3598310000000000    0.3598310000000000 Fe
   0.6401690000000000    0.0000000000000000    0.6401690000000000 Fe
   0.6401690000000000    0.6401690000000000    0.0000000000000000 Fe
