Mg8 Si6
1.0
   5.3822510000000001    0.0000000000000000    0.0000000000000000
  -1.4039750000000000    7.0409139999999999    0.0000000000000000
  -0.6005070000000000   -3.2846869999999999    7.2073060000000000
Mg Si
8 6
direct
   0.5974169999999999    0.5132230000000000    0.7345909999999999 Mg
   0.0846860000000000    0.9609340000000001    0.2234250000000000 Mg
   0.0347120000000000    0.2177179999999999    0.6581859999999999 Mg
   0.4502149999999999    0.3838450000000000    0.2948240000000000 Mg
   0.4325010000000000    0.9340890000000001    0.5961329999999999 Mg
   0.9801559999999999    0.4641640000000001    0.0760360000000000 Mg
   0.8708899999999999    0.7581000000000000    0.4674269999999999 Mg
   0.5619059999999999    0.9666390000000001    0.9973179999999999 Mg
   0.6463079999999999    0.1006170000000000    0.3743929999999999 Si
   0.5381730000000001    0.6707600000000000    0.1421460000000000 Si
   0.1246480000000000    0.6339320000000001    0.7432869999999999 Si
   0.9938659999999999    0.3964870000000000    0.4071530000000000 Si
   0.4214169999999999    0.2757859999999999    0.9254989999999998 Si
   0.0131760000000000    0.9736640000000000    0.8594919999999999 Si
