Li8 P8
1.0
   4.9703850000000003    0.0000000000000000    0.0000000000000000
   0.0000000000000000    5.5938720000000002    0.0000000000000000
   0.0000000000000000    4.8369850000000003    9.0377799999999997
Li P
8 8
direct
   0.6117530000000000    0.2170079999999999    0.6707000000000000 Li
   0.1117530000000000    0.7829919999999999    0.8293000000000000 Li
   0.3882470000000000    0.7829919999999999    0.3293000000000000 Li
   0.8882470000000000    0.2170080000000000    0.1707000000000000 Li
   0.3416840000000000    0.2257679999999999    0.9702140000000000 Li
   0.8416840000000001    0.7742320000000000    0.5297860000000000 Li
   0.6583160000000000    0.7742320000000000    0.0297860000000000 Li
   0.1583160000000000    0.2257680000000000    0.4702140000000000 Li
   0.1050960000000000    0.3166450000000000    0.7070840000000000 P
   0.6050960000000000    0.6833550000000002    0.7929160000000000 P
   0.8949040000000000    0.6833550000000000    0.2929160000000000 P
   0.3949040000000000    0.3166450000000000    0.2070840000000000 P
   0.8439730000000000    0.3031819999999998    0.8882580000000000 P
   0.3439730000000000    0.6968180000000000    0.6117420000000000 P
   0.1560270000000000    0.6968179999999999    0.1117420000000000 P
   0.6560270000000000    0.3031820000000000    0.3882580000000000 P
