Ba8 Pd2
1.0
   0.0000000000000000    6.7023469999999996    6.7023469999999996
   6.7023469999999996    0.0000000000000000    6.7023469999999996
   6.7023469999999996    6.7023469999999996    0.0000000000000000
Ba Pd
8 2
direct
   0.3785430000000000    0.3785430000000000    0.3785430000000000 Ba
   0.3785430000000001    0.3785430000000000    0.8643710000000000 Ba
   0.3785430000000000    0.8643710000000001    0.3785430000000000 Ba
   0.8714570000000000    0.8714570000000001    0.3856290000000001 Ba
   0.8714570000000000    0.8714570000000000    0.8714570000000000 Ba
   0.8643710000000001    0.3785430000000000    0.3785430000000000 Ba
   0.8714570000000000    0.3856290000000001    0.8714570000000001 Ba
   0.3856290000000000    0.8714570000000000    0.8714569999999999 Ba
   0.0000000000000000    0.0000000000000000    0.0000000000000000 Pd
   0.2500000000000000    0.2500000000000000    0.2500000000000000 Pd
