La3 Sn7
1.0
   2.3158089999999998  -13.0953119999999998    0.0000000000000000
   2.3158089999999998   13.0953119999999998    0.0000000000000000
   0.0000000000000000    0.0000000000000000    4.7326059999999996
La Sn
3 7
direct
   0.1849210000000000    0.8150790000000000    0.0000000000000000 La
   0.8150790000000000    0.1849210000000000    0.0000000000000000 La
   0.0000000000000000    0.0000000000000000    0.0000000000000000 La
   0.2882360000000000    0.7117640000000001    0.4999999999999999 Sn
   0.7117640000000001    0.2882360000000000    0.4999999999999999 Sn
   0.4053410000000000    0.5946590000000000    0.0000000000000000 Sn
   0.5946590000000000    0.4053410000000000    0.0000000000000000 Sn
   0.0956560000000000    0.9043440000000000    0.4999999999999999 Sn
   0.9043440000000000    0.0956560000000000    0.4999999999999999 Sn
   0.5000000000000000    0.5000000000000000    0.4999999999999999 Sn
