Sm22 Sn20
1.0
  -5.9326679999999996    5.9326679999999996    8.7668260000000000
   5.9326679999999996   -5.9326679999999996    8.7668260000000000
   5.9326679999999996    5.9326679999999996   -8.7668260000000000
Sm Sn
22 20
direct
   0.8104590000000000    0.0619250000000000    0.2514660000000000 Sm
   0.8104590000000000    0.5589930000000000    0.7485340000000000 Sm
   0.0619250000000000    0.8104590000000000    0.2514660000000000 Sm
   0.5589930000000000    0.8104590000000000    0.7485340000000001 Sm
   0.1895410000000000    0.9380750000000000    0.7485340000000000 Sm
   0.1895410000000000    0.4410070000000000    0.2514660000000000 Sm
   0.9380750000000000    0.1895410000000000    0.7485340000000000 Sm
   0.4410070000000000    0.1895410000000000    0.2514660000000000 Sm
   0.1748690000000000    0.1748690000000000    0.3497390000000000 Sm
   0.8251309999999998    0.8251309999999998    0.6502610000000000 Sm
   0.1748689999999999    0.8251309999999999    0.0000000000000000 Sm
   0.8251309999999999    0.1748689999999999   -0.0000000000000000 Sm
   0.6619960000000000    0.6619960000000000    0.0000000000000000 Sm
   0.3380040000000000    0.3380040000000000    0.0000000000000000 Sm
   0.6023150000000000    0.9298670000000001    0.3275520000000001 Sm
   0.6023150000000000    0.2747620000000000    0.6724480000000000 Sm
   0.9298670000000001    0.6023150000000000    0.3275520000000000 Sm
   0.2747620000000000    0.6023150000000000    0.6724480000000000 Sm
   0.3976850000000000    0.0701330000000001    0.6724480000000000 Sm
   0.3976850000000000    0.7252380000000002    0.3275520000000000 Sm
   0.0701330000000001    0.3976850000000000    0.6724480000000000 Sm
   0.7252380000000002    0.3976850000000000    0.3275520000000000 Sm
   0.3586670000000000    0.0000000000000000    0.3586670000000000 Sn
   0.6413330000000000    0.0000000000000000    0.6413330000000000 Sn
   0.0000000000000000    0.6413330000000000    0.6413330000000000 Sn
   0.0000000000000000    0.3586670000000000    0.3586670000000000 Sn
   0.8893730000000000    0.8893730000000000    0.0000000000000000 Sn
   0.1106270000000000    0.1106270000000000    0.0000000000000000 Sn
   0.3726070000000001    0.3726070000000001    0.7452130000000001 Sn
   0.6273930000000001    0.6273930000000001    0.2547870000000000 Sn
   0.3726070000000000    0.6273930000000001    0.0000000000000000 Sn
   0.6273930000000001    0.3726070000000000   -0.0000000000000000 Sn
   0.7500000000000000    0.2500000000000000    0.5000000000000000 Sn
   0.2500000000000000    0.7500000000000000    0.5000000000000000 Sn
   0.8849970000000001    0.8849970000000000    0.4154890000000000 Sn
   0.4695080000000000    0.4695080000000000    0.5845110000000000 Sn
   0.8849970000000001    0.4695080000000000   -0.0000000000000000 Sn
   0.4695080000000000    0.8849970000000001    0.0000000000000000 Sn
   0.1150030000000000    0.1150030000000000    0.5845110000000000 Sn
   0.5304920000000001    0.5304920000000001    0.4154890000000000 Sn
   0.1150030000000000    0.5304920000000000   -0.0000000000000000 Sn
   0.5304920000000000    0.1150030000000000    0.0000000000000000 Sn
