Na1 Tb3
1.0
   0.0000000000000000    3.9910939999999999    3.9910939999999999
   3.9910939999999999    0.0000000000000000    3.9910939999999999
   3.9910939999999999    3.9910939999999999    0.0000000000000000
Na Tb
1 3
direct
   0.0000000000000000    0.0000000000000000    0.0000000000000000 Na
   0.2500000000000000    0.2500000000000000    0.2500000000000000 Tb
   0.7500000000000000    0.7500000000000000    0.7500000000000000 Tb
   0.5000000000000000    0.5000000000000000    0.5000000000000000 Tb
