Nd24 Ga16
1.0
  -6.0285820000000001    6.0285820000000001    7.7439580000000001
   6.0285820000000001   -6.0285820000000001    7.7439580000000001
   6.0285820000000001    6.0285820000000001   -7.7439580000000001
Nd Ga
24 16
direct
   0.1485520000000000    0.6485520000000000    0.5000000000000000 Nd
   0.6485520000000000    0.1485520000000000    0.5000000000000000 Nd
   0.8514480000000000    0.3514480000000000    0.5000000000000000 Nd
   0.3514480000000000    0.8514480000000000    0.4999999999999999 Nd
   0.6683180000000000    0.1683180000000001    0.8366350000000000 Nd
   0.3316820000000000    0.8316820000000001    0.1633650000000000 Nd
   0.1683180000000000    0.3316820000000000    0.5000000000000000 Nd
   0.8316820000000001    0.6683180000000000    0.5000000000000000 Nd
   0.0664440000000001    0.9313490000000000    0.2698770000000000 Nd
   0.6614719999999999    0.7965670000000000    0.7301230000000000 Nd
   0.5664440000000001    0.2965670000000001    0.1350950000000000 Nd
   0.1614720000000001    0.4313490000000001    0.8649050000000001 Nd
   0.7965670000000000    0.0664440000000001    0.1350949999999999 Nd
   0.9313490000000001    0.6614719999999999    0.8649050000000000 Nd
   0.4313490000000000    0.5664440000000001    0.2698770000000000 Nd
   0.2965670000000000    0.1614720000000000    0.7301230000000000 Nd
   0.9335560000000002    0.0686510000000000    0.7301230000000000 Nd
   0.3385280000000001    0.2034330000000000    0.2698770000000000 Nd
   0.4335560000000001    0.7034330000000001    0.8649050000000001 Nd
   0.8385280000000002    0.5686510000000001    0.1350950000000000 Nd
   0.2034330000000000    0.9335560000000001    0.8649050000000000 Nd
   0.0686510000000000    0.3385280000000000    0.1350950000000000 Nd
   0.5686510000000000    0.4335560000000001    0.7301230000000000 Nd
   0.7034330000000001    0.8385280000000002    0.2698770000000000 Nd
   0.7500000000000001    0.7500000000000001    0.0000000000000000 Ga
   0.2500000000000000    0.2500000000000000    0.0000000000000000 Ga
   0.0000000000000000    0.0000000000000000    0.0000000000000000 Ga
   0.5000000000000000    0.5000000000000000    0.0000000000000000 Ga
   0.1156210000000000    0.6156210000000000    0.7312419999999999 Ga
   0.8843790000000000    0.3843790000000001    0.2687580000000000 Ga
   0.6156210000000000    0.8843789999999999    0.5000000000000000 Ga
   0.3843790000000001    0.1156210000000000    0.5000000000000000 Ga
   0.8794750000000000    0.3794750000000001    0.8566470000000002 Ga
   0.5228280000000000    0.0228280000000000    0.1433530000000000 Ga
   0.3794750000000001    0.5228280000000000    0.5000000000000000 Ga
   0.0228280000000001    0.8794750000000001    0.5000000000000001 Ga
   0.1205250000000001    0.6205250000000001    0.1433530000000000 Ga
   0.4771720000000000    0.9771720000000002    0.8566470000000000 Ga
   0.6205250000000001    0.4771720000000001    0.5000000000000000 Ga
   0.9771720000000002    0.1205250000000001    0.5000000000000000 Ga
