Y1 Zn5
1.0
   2.6579799999999998   -4.6037559999999997    0.0000000000000000
   2.6579799999999998    4.6037559999999997    0.0000000000000000
   0.0000000000000000    0.0000000000000000    4.2282590000000004
Y Zn
1 5
direct
   0.0000000000000000    0.0000000000000000    0.0000000000000000 Y
   0.0000000000000000    0.5000000000000000    0.5000000000000000 Zn
   0.3333330000000000    0.6666670000000000    0.0000000000000000 Zn
   0.6666670000000000    0.3333330000000000    0.0000000000000000 Zn
   0.5000000000000000    0.0000000000000000    0.5000000000000000 Zn
   0.5000000000000000    0.5000000000000000    0.5000000000000000 Zn
