Nb34 O68
1.0
  11.4066448800000000   -1.0033939500000000    0.0677603800000000
  -1.0124209099999999   11.8739695699999999    0.1262517200000000
   0.0807454500000000    0.1318235700000000   11.5023589000000008
Nb O
34 68
direct
   0.3619144600000000    0.5162000000000000    0.6272384500000000 Nb
   0.8081842299999998    0.0457768000000000    0.5154799200000000 Nb
   0.0360692300000000    0.7247516200000000    0.2306397700000000 Nb
   0.3824661100000000    0.7480166399999999    0.8943575099999999 Nb
   0.6702076700000000    0.6095158000000002    0.2956462699999999 Nb
   0.4647898999999999    0.3181726200000000    0.0422188400000000 Nb
   0.8499484699999998    0.6866624800000000    0.0096251700000000 Nb
   0.2888965600000000    0.5169465800000000    0.9243729799999999 Nb
   0.1899020500000000    0.9833893700000002    0.3640771100000000 Nb
   0.9626973099999999    0.1679589000000000    0.2699617700000000 Nb
   0.1954360000000000    0.2521814900000000    0.8706987400000000 Nb
   0.4706193399999999    0.1636067400000000    0.3178780299999999 Nb
   0.4663181100000000    0.4285627700000000    0.3956040900000000 Nb
   0.7471977500000000    0.3769029600000001    0.0132557900000000 Nb
   0.6181864500000001    0.1225324500000000    0.8461485100000000 Nb
   0.7573966099999999    0.3219561400000000    0.6675784299999999 Nb
   0.6367558100000000    0.8411867500000001    0.0638910400000000 Nb
   0.2520703999999999    0.8249352100000000    0.6153823000000000 Nb
   0.7534041999999999    0.2192606100000000    0.1826257100000000 Nb
   0.2502760900000000    0.2589832699999999    0.5328416499999999 Nb
   0.9640930800000000    0.1634253400000000    0.7642052300000000 Nb
   0.0760962600000000    0.6196892700000001    0.4644775199999999 Nb
   0.1047246700000000    0.0228117000000000    0.8043551599999998 Nb
   0.8449649899999999    0.0596893700000000    0.0480446400000000 Nb
   0.9260662699999996    0.2966908100000000    0.4951837499999999 Nb
   0.5828619500000000    0.7952635699999999    0.6411453499999999 Nb
   0.9539496299999999    0.4513924500000000    0.8161074900000000 Nb
   0.9045037900000001    0.7882923899999998    0.6636316700000000 Nb
   0.0090828700000000    0.3041593700000000    0.0648723300000000 Nb
   0.6069457800000000    0.5493210299999999    0.5506123600000000 Nb
   0.3944844999999999    0.0323745600000000    0.6076049700000000 Nb
   0.4337431900000000    0.3267519400000000    0.7330132800000000 Nb
   0.0993784900000000    0.7047899800000000    0.8827842399999999 Nb
   0.9236631599999999    0.4348652299999999    0.2385012200000000 Nb
   0.1498550100000000    0.1915094500000000    0.7078848599999998 O
   0.4800333600000000    0.0804948600000000    0.4647076300000000 O
   0.0305858200000000    0.7569119399999999    0.0228030000000000 O
   0.1141388300000000    0.5474551500000000    0.8287068000000000 O
   0.5941047699999998    0.1240698100000000    0.2252453200000000 O
   0.0217087200000000    0.8437252899999999    0.7871625199999999 O
   0.4809795800000000    0.6628960000000000    0.5728847900000000 O
   0.7693632000000001    0.9359168600000000    0.1422294700000000 O
   0.1577830600000000    0.6517012700000001    0.3209072500000000 O
   0.0117787700000000    0.5649348600000000    0.1644214000000000 O
   0.7521301599999999    0.1999329500000000    0.5407036300000000 O
   0.9355776300000002    0.4330300200000001    0.9915553100000000 O
   0.2268043600000000    0.6575123500000000    0.9854375799999999 O
   0.0226560000000000    0.3012958900000000    0.8626323600000001 O
   0.3647026399999999    0.6131918600000000    0.7899969899999999 O
   0.9638130899999999    0.7094671600000000    0.3788175300000000 O
   0.6998550600000000    0.6734586299999999    0.4457464500000000 O
   0.1829702700000000    0.3660290100000000    0.0080721200000000 O
   0.7728300700000000    0.1599216000000000    0.7743831900000000 O
   0.6674103400000000    0.9372489099999999    0.5733134600000001 O
   0.1654946800000000    0.8441181499999999    0.4773900900000000 O
   0.3507446799999999    0.2654239999999999    0.3954174400000000 O
   0.1315682600000000    0.8671105100000001    0.2349200700000000 O
   0.7556296900000000    0.5459223200000000    0.0252514700000000 O
   0.0742090700000000    0.0647303400000000    0.3156492400000000 O
   0.2052451400000000    0.0918759900000000    0.9224555299999999 O
   0.5217908399999999    0.4851391600000000    0.7054569300000000 O
   0.9854705000000000    0.4689438100000000    0.4281114200000000 O
   0.4157175600000000    0.4663579700000000    0.0030972100000000 O
   0.4253797799999999    0.8636642699999999    0.6005683900000000 O
   0.0106075500000000    0.1299640400000000    0.0942296000000000 O
   0.9769738800000000    0.6726314600000001    0.6012706699999999 O
   0.8271006499999999    0.2257914300000000    0.0111654800000000 O
   0.2360581700000000    0.0823043000000000    0.4964249099999999 O
   0.6710879100000000    0.0150442600000000    0.9613337400000000 O
   0.7765354599999998    0.5085985600000001    0.2823368100000000 O
   0.3759006300000000    0.1969342300000000    0.6381770099999999 O
   0.3313750300000001    0.0359754300000000    0.2840741399999999 O
   0.5632868800000000    0.3107426600000000    0.3558107200000000 O
   0.9423373399999999    0.1350399700000000    0.5957215000000000 O
   0.8308598000000000    0.0463666800000000    0.3582216700000000 O
   0.7401441699999999    0.7415817100000001    0.6900254899999999 O
   0.2402629000000000    0.7858867800000000    0.7952574900000000 O
   0.6212181600000000    0.7362680300000000    0.1860775900000000 O
   0.7247482999999999    0.4448381900000000    0.5801636800000000 O
   0.9508238400000000    0.3704075700000001    0.6657404099999998 O
   0.2335112900000000    0.9747362399999999    0.6915237300000000 O
   0.4962499700000000    0.0403722500000000    0.7582489900000000 O
   0.5973471599999999    0.2368195000000000    0.9670582599999998 O
   0.3060330600000000    0.4447907100000000    0.4790196400000000 O
   0.7342463999999999    0.7749045499999999    0.9564508500000000 O
   0.8447006999999999    0.2765536100000000    0.3301757100000000 O
   0.3937831899999999    0.2341806900000000    0.1653949900000000 O
   0.2121294900000000    0.6379807900000000    0.5686970400000000 O
   0.7790348399999999    0.3958681299999999    0.8310784799999998 O
   0.4700853300000000    0.8250906700000001    0.0216919000000000 O
   0.5891694400000000    0.2618478100000001    0.7303762499999998 O
   0.9322865600000000    0.0330875800000000    0.8787824499999999 O
   0.2772987399999999    0.4093816000000000    0.7807351600000000 O
   0.9263984900000000    0.6272251499999999    0.8567481999999998 O
   0.0572135100000000    0.3307592100000000    0.2366201000000000 O
   0.6075510200000001    0.3846382900000000    0.1137983800000000 O
   0.8619142199999998    0.7210324900000000    0.1717820500000000 O
   0.5289876999999999    0.8025159700000000    0.7929599600000000 O
   0.9030173199999998    0.9123173999999999    0.5657586700000000 O
   0.3837505299999999    0.2609530100000000    0.8926791600000001 O
   0.0983424200000000    0.2855034600000000    0.4934473900000000 O
   0.5100336500000000    0.5271569900000000    0.2627370100000000 O
