Tb10 Bi6
1.0
   4.6251860000000002   -8.0110580000000002    0.0000000000000000
   4.6251860000000002    8.0110580000000002    0.0000000000000000
   0.0000000000000000    0.0000000000000000    6.3832069999999996
Tb Bi
10 6
direct
   0.6666670000000000    0.3333330000000000    0.0000000000000000 Tb
   0.3333330000000000    0.6666670000000000    0.0000000000000000 Tb
   0.3333330000000000    0.6666670000000000    0.5000000000000000 Tb
   0.6666670000000000    0.3333330000000000    0.5000000000000000 Tb
   0.7554859999999999    0.7554859999999999    0.7500000000000000 Tb
   0.2445140000000000    0.0000000000000000    0.7500000000000000 Tb
   0.0000000000000000    0.2445140000000000    0.7500000000000000 Tb
   0.2445140000000000    0.2445140000000000    0.2500000000000000 Tb
   0.7554859999999999   -0.0000000000000000    0.2500000000000000 Tb
  -0.0000000000000000    0.7554859999999999    0.2500000000000000 Tb
   0.3873670000000000    0.3873670000000000    0.7500000000000000 Bi
   0.6126330000000000   -0.0000000000000000    0.7500000000000000 Bi
  -0.0000000000000000    0.6126330000000000    0.7500000000000000 Bi
   0.6126330000000000    0.6126330000000000    0.2500000000000000 Bi
   0.3873670000000000    0.0000000000000000    0.2500000000000000 Bi
   0.0000000000000000    0.3873670000000000    0.2500000000000000 Bi
