Ta84 Te52
1.0
  19.5712441499999983   -0.0001474600000000    0.0009358700000000
  -9.7857496400000006   16.9489833899999986    0.0041629100000000
   0.0005070800000000    0.0028321600000000   10.7002336600000003
Ta Te
84 52
direct
   0.2872339099999999    0.4282426400000000    0.6773894399999999 Ta
   0.7145495800000000    0.2853222699999999    0.7180964699999999 Ta
   0.5000081300000001    0.0000494200000000    0.3968247500000000 Ta
   0.7126750600000000    0.5716620399999999    0.6772620300000000 Ta
   0.4252307100000000    0.5744994299999999    0.5525650599999999 Ta
   0.7315941400000001    0.7316480000000000    0.5994546599999999 Ta
   0.8521810399999998    0.8522092399999999    0.8019825099999999 Ta
   0.6666252700000000    0.3332959400000000    0.4915016000000000 Ta
   0.1456348999999999    0.8544643499999999    0.7595146699999998 Ta
   0.2911280100000000    0.1456055900000000    0.7594982799999999 Ta
   0.2873017600000000    0.8589810899999998    0.6773234400000000 Ta
   0.3302704100000000    0.9171617999999999    0.4214240000000000 Ta
   0.8544197500000000    0.7088273599999999    0.7595042500000000 Ta
   0.5868798500000000    0.9171614200000000    0.4214415500000000 Ta
   0.4282334100000000    0.1409897400000000    0.6773379499999999 Ta
   0.5005390900000000    0.2502964400000000    0.4669121400000000 Ta
   0.2503511999999999    0.7496937199999999    0.4669054999999999 Ta
   0.1635411400000000    0.8365642299999999    0.4937391100000000 Ta
   0.3301843400000000    0.4131222300000000    0.4214752500000000 Ta
   0.5868137600000000    0.6697661299999998    0.4214740000000000 Ta
   0.1410120000000000    0.4282438400000000    0.6773627000000000 Ta
   0.8507188999999999    0.4252553800000000    0.5525901300000000 Ta
   0.3268914099999999    0.1634916000000000    0.4936816300000000 Ta
   0.0001084200000000    0.4999757399999999    0.3968232300000000 Ta
   0.5746238800000000    0.1493066700000000    0.5526243500000000 Ta
   0.4279336100000001    0.0000253600000000    0.6374124399999999 Ta
   0.0829705300000000    0.4131378300000000    0.4214203200000000 Ta
   0.8366033400000001    0.1635011400000000    0.4936662900000000 Ta
   0.4993403100000000    0.7496795999999999    0.4669819000000000 Ta
   0.1478496700000000    0.0000631700000000    0.8019417300000000 Ta
   0.7316630000000001    0.0000797700000000    0.5995281300000000 Ta
   0.2853674500000000    0.5707235999999999    0.7180676800000000 Ta
   0.2853711400000000    0.7145174599999999    0.7180661999999999 Ta
   0.0000561099999999    0.8522255699999999    0.8019930199999998 Ta
   0.8544857699999999    0.1456070400000000    0.7595084199999999 Ta
   0.0830935400000000    0.1661759300000000    0.5685430899999999 Ta
   0.9169928300000002    0.0831193600000000    0.5686095900000000 Ta
   0.0829891100000000    0.6697960100000000    0.4213946300000000 Ta
   0.7127336399999998    0.1409931600000000    0.6773577600000000 Ta
   0.4131290700000000    0.0829384600000000    0.4214561300000000 Ta
   0.1455910700000000    0.2911428999999999    0.7595108199999999 Ta
   0.7496767900000000    0.4993629800000000    0.4670165500000000 Ta
   0.0000963900000000    0.0001440700000000    0.6773359300000000 Ta
   0.7088059600000000    0.8544331699999999    0.7595063899999999 Ta
   0.5720612700000000    0.0000251500000000    0.6374000899999999 Ta
   0.0000816899999999    0.2683724399999999    0.5996287500000000 Ta
   0.4130611399999999    0.3302393700000000    0.4215130000000000 Ta
   0.5719665200000000    0.5720090099999999    0.6373606900000000 Ta
   0.0831130699999999    0.9169919799999998    0.5687197700000000 Ta
   0.1492683099999999    0.5745234100000000    0.5525798900000000 Ta
   0.0000633499999999    0.4279062600000000    0.6374417599999999 Ta
   0.4282055900000000    0.2872427200000000    0.6773786800000000 Ta
   0.2682496900000000    0.2683089600000000    0.5996684700000000 Ta
   0.4253551199999999    0.8507582000000000    0.5525626699999999 Ta
   0.1634776600000000    0.3269190199999999    0.4936664399999999 Ta
   0.8522265600000001    0.0000688900000000    0.8019501399999999 Ta
   0.2502978000000000    0.5005719099999999    0.4668516599999999 Ta
   0.9171962600000000    0.5868926600000000    0.4214541000000000 Ta
   0.2683897400000000    0.0000523600000000    0.5995500100000000 Ta
   0.5745116200000000    0.4252275599999999    0.5525884599999999 Ta
   0.4998663899999999    0.4999393100000000    0.3968410000000000 Ta
   0.0000644499999999    0.5720420099999999    0.6373604200000000 Ta
   0.8338774100000000    0.9169862599999998    0.5687523900000000 Ta
   0.6698061500000000    0.0829469700000000    0.4214415699999999 Ta
   0.8590421700000002    0.2872644300000000    0.6773772100000000 Ta
   0.9169675800000000    0.8339035500000000    0.5687918599999999 Ta
   0.5716514900000000    0.8589659900000000    0.6772628599999999 Ta
   0.8365227300000000    0.6730354600000000    0.4938086600000000 Ta
   0.0001050399999999    0.7316341399999999    0.5994426800000000 Ta
   0.9171981799999999    0.3302604800000000    0.4214580700000000 Ta
   0.0000521500000000    0.1478462900000000    0.8019083400000001 Ta
   0.1478198400000000    0.1478506500000000    0.8018892099999999 Ta
   0.4291133200000001    0.7144949500000000    0.7180412999999999 Ta
   0.5707313200000002    0.2853377300000000    0.7180840499999999 Ta
   0.3333107199999999    0.6666207200000001    0.4915773299999999 Ta
   0.1661551100000000    0.0831196700000000    0.5685799400000000 Ta
   0.8589947500000000    0.5716696099999999    0.6772416300000000 Ta
   0.5716246000000000    0.7126834799999999    0.6772611100000000 Ta
   0.6697141400000000    0.5868764600000000    0.4214990900000000 Ta
   0.4278503299999999    0.4278926100000000    0.6374533200000000 Ta
   0.7497289100000000    0.2503059599999999    0.4668884999999999 Ta
   0.6730087700000000    0.8365360599999999    0.4938121999999999 Ta
   0.7145177900000000    0.4291027700000000    0.7180674600000000 Ta
   0.1410509299999999    0.7126964900000000    0.6772941500000000 Ta
   0.9999611300000000    0.3282035200000000    0.8405056000000000 Te
   0.2053933600000000    0.6027711400000000    0.3071971499999999 Te
   0.2203514100000000    0.4406984900000000    0.9086174299999999 Te
   0.6718092599999997    0.9999137799999996    0.8404678600000000 Te
   0.8015873800000000    0.6031007200000000    0.2548430500000000 Te
   0.3969749500000000    0.1984998600000000    0.2547883500000000 Te
   0.1113389999999999    0.8885856499999999    0.0007425900000000 Te
   0.9999499299999999    0.6718861099999999    0.8404597299999998 Te
   0.5576760800000000    0.4424402199999999    0.8098171399999999 Te
   0.1984908300000000    0.3970046200000000    0.2547728799999999 Te
   0.3281285299999999    0.9999139300000000    0.8404760799999998 Te
   0.8014216900000000    0.8014173900000000    0.3696230400000000 Te
   0.9999703199999999    0.8013995399999998    0.3696310200000000 Te
   0.4407061300000000    0.2203343400000000    0.9085998599999999 Te
   0.9999918999999999    0.1986319000000000    0.3696181800000000 Te
   0.7947105099999999    0.3974247399999999    0.3071878700000000 Te
   0.2203232400000000    0.7795911100000000    0.9086125799999999 Te
   0.3973283599999999    0.7946409999999999    0.3072083900000000 Te
   0.0000527000000000    0.4007897500000000    0.1966984900000000 Te
   0.4007290000000000    0.4007732800000000    0.1968274700000000 Te
   0.4007364200000000    0.0000158200000000    0.1967426799999999 Te
   0.8015749600000001    0.1985225300000000    0.2547801900000000 Te
   0.3282793000000000    0.3282653600000000    0.8404503600000000 Te
   0.6719028600000001    0.6718866700000000    0.8403896499999999 Te
   0.6666450900000001    0.3333151500000000    0.9390802399999999 Te
   0.6030541200000000    0.8015847899999999    0.2548454399999999 Te
   0.3333190300000000    0.6666355899999999    0.9390012400000000 Te
   0.8885961800000000    0.7772127899999999    0.0007370100000000 Te
   0.5993076200000000    0.5993511200000000    0.1968770400000000 Te
   0.1985147799999999    0.8015708600000000    0.2547995500000000 Te
   0.5592524299999999    0.7795759199999999    0.9085770000000001 Te
   0.4424279800000000    0.5576911500000000    0.8098296500000000 Te
   0.3973741900000001    0.6027651100000000    0.3071934900000000 Te
   0.9999304300000000    0.9998972699999998    0.4222893400000000 Te
   0.8013736200000000    0.9999473999999999    0.3696338000000000 Te
   0.6026711800000001    0.2053178100000000    0.3071807599999999 Te
   0.9999553299999999    0.9999168100000001    0.9339255499999999 Te
   0.7795961800000000    0.5592485099999999    0.9085638000000001 Te
   0.7796023200000000    0.2203094800000000    0.9086145500000000 Te
   0.0000821899999999    0.5993553399999999    0.1967509099999999 Te
   0.6027226200000001    0.3974520100000000    0.3071664700000000 Te
   0.8847019699999997    0.4423944299999999    0.8098399499999999 Te
   0.5993138200000000    0.0000414400000000    0.1967483300000000 Te
   0.2226658100000000    0.1113049500000000    0.0007386100000000 Te
   0.7772351800000000    0.8885875999999999    0.0007061600000000 Te
   0.5576426900000000    0.1152813400000000    0.8098725699999999 Te
   0.1153280699999999    0.5576861399999999    0.8098888499999999 Te
   0.1985903099999999    0.9999682699999999    0.3696239599999999 Te
   0.8886068200000002    0.1113138100000000    0.0007680100000000 Te
   0.4423425600000000    0.8846545599999999    0.8098666499999999 Te
   0.1113190700000000    0.2226520900000000    0.0007409700000000 Te
   0.1986401400000000    0.1986318800000000    0.3696078400000000 Te
