Mg2 Ni4
1.0
   0.0000000000000000    3.4046029999999998    3.4046029999999998
   3.4046029999999998    0.0000000000000000    3.4046029999999998
   3.4046029999999998    3.4046029999999998    0.0000000000000000
Mg Ni
2 4
direct
   0.7500000000000000    0.7500000000000001    0.7500000000000001 Mg
   0.5000000000000001    0.5000000000000000    0.4999999999999999 Mg
   0.1250000000000000    0.1250000000000000    0.1250000000000000 Ni
   0.6250000000000002    0.1250000000000000    0.1250000000000000 Ni
   0.1250000000000000    0.1250000000000000    0.6250000000000002 Ni
   0.1250000000000000    0.6250000000000002    0.1250000000000000 Ni
