W4 O8
1.0
   1.6179610000000000   -5.0594539999999997    0.0000000000000000
   1.6179610000000000    5.0594539999999997    0.0000000000000000
   0.0000000000000000    0.0000000000000000   10.5855820000000005
W O
4 8
direct
   0.1330159999999999    0.8669839999999999    0.0750930000000000 W
   0.8669839999999999    0.1330159999999999    0.9249070000000000 W
   0.1330159999999999    0.8669839999999999    0.4249070000000000 W
   0.8669839999999999    0.1330159999999999    0.5750930000000000 W
   0.7586840000000000    0.2413160000000000    0.4036550000000000 O
   0.2413160000000000    0.7586840000000000    0.5963450000000000 O
   0.2413160000000000    0.7586840000000000    0.9036550000000000 O
   0.7586840000000000    0.2413160000000000    0.0963450000000000 O
   0.0830080000000000    0.9169920000000000    0.2500000000000000 O
   0.9169920000000000    0.0830080000000000    0.7500000000000000 O
   0.5000000000000000    0.5000000000000000    0.0000000000000000 O
   0.5000000000000000    0.5000000000000000    0.5000000000000000 O
