Sn3 Bi1
1.0
  -2.3512520000000001    2.3512520000000001    5.2830859999999999
   2.3512520000000001   -2.3512520000000001    5.2830859999999999
   2.3512520000000001    2.3512520000000001   -5.2830859999999999
Sn Bi
3 1
direct
   0.5000000000000000    0.5000000000000000    0.0000000000000000 Sn
   0.2500000000000001    0.7499999999999999    0.5000000000000000 Sn
   0.7499999999999999    0.2500000000000001    0.5000000000000000 Sn
   0.0000000000000000    0.0000000000000000    0.0000000000000000 Bi
