Cd10 I20
1.0
   2.1695530000000001   -3.7577769999999999    0.0000000000000000
   2.1695530000000001    3.7577769999999999    0.0000000000000000
   0.0000000000000000    0.0000000000000000   79.4654599999999931
Cd I
10 20
direct
   0.0000000000000000    0.0000000000000000    0.5250140000000000 Cd
   0.0000000000000000    0.0000000000000000    0.3250029999999999 Cd
   0.0000000000000000    0.0000000000000000    0.0249920000000000 Cd
   0.0000000000000000    0.0000000000000000    0.2250270000000000 Cd
   0.0000000000000000    0.0000000000000000    0.6250539999999999 Cd
   0.0000000000000000    0.0000000000000000    0.4250140000000000 Cd
   0.3333330000000000    0.6666670000000000    0.7249189999999999 Cd
   0.3333330000000000    0.6666670000000000    0.8249310000000000 Cd
   0.0000000000000000    0.0000000000000000    0.1250490000000000 Cd
   0.0000000000000000    0.0000000000000000    0.9249949999999999 Cd
   0.3333330000000000    0.6666670000000000    0.1034340000000000 I
   0.6666670000000000    0.3333330000000000    0.4466340000000000 I
   0.6666670000000000    0.3333330000000000    0.3466279999999999 I
   0.3333330000000000    0.6666670000000000    0.3034000000000000 I
   0.6666670000000000    0.3333330000000000    0.9466059999999999 I
   0.3333330000000000    0.6666670000000000    0.6034289999999999 I
   0.0000000000000000    0.0000000000000000    0.7032909999999999 I
   0.3333330000000000    0.6666670000000000    0.4034119999999999 I
   0.3333330000000000    0.6666670000000000    0.2034420000000000 I
   0.0000000000000000    0.0000000000000000    0.8033619999999999 I
   0.3333330000000000    0.6666670000000000    0.9033810000000000 I
   0.6666670000000000    0.3333330000000000    0.0466060000000000 I
   0.3333330000000000    0.6666670000000000    0.0033750000000000 I
   0.6666670000000000    0.3333330000000000    0.5466330000000000 I
   0.6666670000000000    0.3333330000000000    0.8465040000000000 I
   0.6666670000000000    0.3333330000000000    0.2466230000000000 I
   0.3333330000000000    0.6666670000000000    0.5034060000000000 I
   0.6666670000000000    0.3333330000000000    0.1466650000000000 I
   0.6666670000000000    0.3333330000000000    0.6466579999999998 I
   0.6666670000000000    0.3333330000000000    0.7465110000000000 I
