Si48 O107
1.0
 -12.2698901300000003    0.0023571400000000  -12.2789406299999992
  12.2722394200000000  -12.2722444300000006    0.0000078500000000
 -12.2675160999999999  -12.2675210999999997   -0.0000168600000000
Si O
48 107
direct
   0.6075286000000001    0.3920975099999999    0.8568478299999999 Si
   0.6075280700000000    0.2154309799999999    0.0356238400000000 Si
   0.8924235600000001    0.8567581900000000    0.3921171599999999 Si
   0.8924232300000000    0.0356653700000000    0.2154600399999998 Si
   0.0723758400000000    0.2156129400000000    0.3921312599999999 Si
   0.4275877500000000    0.3920491000000000    0.2155593199999999 Si
   0.4275879100000001    0.0355386100000000    0.8568527699999999 Si
   0.0723759800000000    0.8567624800000000    0.0354928000000000 Si
   0.2488627700000000    0.8567736700000002    0.2155728200000000 Si
   0.2511359100000001    0.0355704599999999    0.3921132799999999 Si
   0.2488629300000000    0.3920893200000000    0.0355643699999999 Si
   0.2511356700000000    0.2155654299999999    0.8567513299999999 Si
   0.2488630900000001    0.3920891799999999    0.2155719099999999 Si
   0.2511360200000001    0.2155655099999999    0.3921131100000000 Si
   0.2488626300000000    0.8567737300000000    0.0355654600000000 Si
   0.2511359500000000    0.0355703100000000    0.8567507300000000 Si
   0.6075285600000000    0.2154315299999999    0.8568475399999997 Si
   0.6075281500000000    0.3920967000000000    0.0356240200000000 Si
   0.8924229400000002    0.0356647500000000    0.3921172299999998 Si
   0.8924226600000003    0.8567581200000000    0.2154601999999999 Si
   0.0723757800000000    0.8567622000000000    0.3921311700000001 Si
   0.4275878500000000    0.0355388699999999    0.2155595700000000 Si
   0.4275883700000001    0.3920493800000000    0.8568523699999998 Si
   0.0723760100000000    0.2156137100000000    0.0354927700000000 Si
   0.3925225500000000    0.6079296400000000    0.1431847300000000 Si
   0.3925228800000001    0.7845930100000000    0.9642923799999997 Si
   0.1075296200000000    0.1431870400000000    0.6079247800000001 Si
   0.1075298100000000    0.9643422099999999    0.7845446999999998 Si
   0.9275930900000000    0.7844035499999998    0.6080362999999999 Si
   0.5724008800000000    0.6078952600000000    0.7844802999999999 Si
   0.5724007000000001    0.9645056100000001    0.1431189800000000 Si
   0.9275932600000001    0.1431900999999999    0.9643713299999997 Si
   0.7511336500000001    0.1431986799999999    0.7845076699999998 Si
   0.7489016800000001    0.9644656000000000    0.6079937399999997 Si
   0.7511337400000000    0.6079347499999997    0.9643585199999998 Si
   0.7489017899999999    0.7844357800000000    0.1431045300000000 Si
   0.7511346100000000    0.6079355299999999    0.7845070699999999 Si
   0.7489025000000001    0.7844359600000000    0.6079938299999997 Si
   0.7511340500000001    0.1431985299999999    0.9643585299999999 Si
   0.7489026500000001    0.9644665999999998    0.1431040900000000 Si
   0.3925226600000001    0.7845929500000000    0.1431842000000000 Si
   0.3925229300000000    0.6079298299999999    0.9642927899999999 Si
   0.1075291200000000    0.9643419099999999    0.6079249999999998 Si
   0.1075293300000000    0.1431872300000000    0.7845454700000000 Si
   0.9275928400000000    0.1431889099999998    0.6080362499999999 Si
   0.5724003000000000    0.9645051300000000    0.7844801299999999 Si
   0.5724006100000001    0.6078950200000001    0.1431192799999999 Si
   0.9275927500000001    0.7844031399999999    0.9643714399999999 Si
   0.5060438100000001    0.3642700300000000    0.1417949000000000 O
   0.5060437000000001    0.1417738699999999    0.8521614100000000 O
   0.9938539400000002    0.1416726200000000    0.3643475899999998 O
   0.9938540199999999    0.8521814199999999    0.1417980100000000 O
   0.2833889400000000    0.1416948100000000    0.3643399199999999 O
   0.2165614400000000    0.3642303100000000    0.1417200100000000 O
   0.2165614000000000    0.8523312200000001    0.1417190100000000 O
   0.2833884700000001    0.1416943399999999    0.8522714199999999 O
   0.5060436500000001    0.1417740700000000    0.1417947899999999 O
   0.9938534300000001    0.8521812300000000    0.3643469599999999 O
   0.5060429300000000    0.3642693800000000    0.8521609400000000 O
   0.9938532600000002    0.1416723500000000    0.1417994799999998 O
   0.4941533000000001    0.6359596300000000    0.8580950999999998 O
   0.4941537900000000    0.8581941100000000    0.1477521300000000 O
   0.0060357500000000    0.8581651600000001    0.6358032300000001 O
   0.0060362300000000    0.1478704700000000    0.8581611299999998 O
   0.7163521499999999    0.8581753699999999    0.6357828099999999 O
   0.7837575100000002    0.6359313299999999    0.8581211999999997 O
   0.7837573100000000    0.1478262400000000    0.8581208699999999 O
   0.7163527000000001    0.8581759100000002    0.1478646400000000 O
   0.4941538300000001    0.8581942400000000    0.8580947999999999 O
   0.0060351900000000    0.1478704999999999    0.6358033799999999 O
   0.4941541600000001    0.6359601300000000    0.1477513499999999 O
   0.0060351200000000    0.8581650900000001    0.8581612900000002 O
   0.3570581900000001    0.0350462900000000    0.3220591399999999 O
   0.3570574900000000    0.3220116200000000    0.8208827299999999 O
   0.1429190300000000    0.3220407200000000    0.0350260600000000 O
   0.1429190300000000    0.8208787200000000    0.3220552600000000 O
   0.6443291300000000    0.3221643500000000    0.0346286299999999 O
   0.8558914399999999    0.0350766199999998    0.3220534499999998 O
   0.8558914500000001    0.8208153099999999    0.3220543099999998 O
   0.6443298600000001    0.3221647899999998    0.8210415699999998 O
   0.3570573600000001    0.3220118900000000    0.3220595399999998 O
   0.1429190100000000    0.8208791100000000    0.0350259300000000 O
   0.3570572400000000    0.0350458900000000    0.8208829899999998 O
   0.1429187600000000    0.3220403600000000    0.3220553600000000 O
   0.6431521000000000    0.9652191000000000    0.6778154999999999 O
   0.6431525800000000    0.6779333200000000    0.1790321199999999 O
   0.8568645800000001    0.6778490500000001    0.9652349099999996 O
   0.8568643900000000    0.1790155000000000    0.6779005799999998 O
   0.3556816300000000    0.6778405599999999    0.9654025499999996 O
   0.1444230300000000    0.9654130800000000    0.6777894300000000 O
   0.1444226700000000    0.1790094399999999    0.6777889399999999 O
   0.3556815199999999    0.6778409600000002    0.1789158800000000 O
   0.6431511500000000    0.6779319800000000    0.6778161599999999 O
   0.8568645000000001    0.1790152500000000    0.9652346299999998 O
   0.6431519000000001    0.9652189300000000    0.1790328899999999 O
   0.8568640300000001    0.6778485800000000    0.6779012899999998 O
   0.7505211600000001    0.8752604600000000    0.8747396099999999 O
   0.2499847900000000    0.1249923200000000    0.1250077500000000 O
   0.3473268200000000    0.3813200900000000    0.9660719999999998 O
   0.3473279300000001    0.9660078800000000    0.1866010099999999 O
   0.1524771900000000    0.9659386000000000    0.3815729600000000 O
   0.1524775400000000    0.1865379800000000    0.9659490199999998 O
   0.9316296199999999    0.9658149399999999    0.3818050300000000 O
   0.5678948400000000    0.3815445599999998    0.9660526599999998 O
   0.5678950600000001    0.1863502599999999    0.9660520499999998 O
   0.9316293800000001    0.9658145499999999    0.1865651299999998 O
   0.3473270400000000    0.9660077400000002    0.9660717100000000 O
   0.1524771800000000    0.1865384500000000    0.3815720100000000 O
   0.3473264700000001    0.3813194000000000    0.1866014900000000 O
   0.1524779100000000    0.9659396200000000    0.9659494800000000 O
   0.6524425500000001    0.6184055500000000    0.0340338899999999 O
   0.6524421800000001    0.0340376599999999    0.8135239599999999 O
   0.8475676100000000    0.0338933699999999    0.6184665999999999 O
   0.8475672700000001    0.8136748300000000    0.0339663399999999 O
   0.0679215700000000    0.0339604300000000    0.6185977300000000 O
   0.4320924000000000    0.6185149900000000    0.0339541699999999 O
   0.4320929500000000    0.8135776400000000    0.0339535500000000 O
   0.0679214400000000    0.0339605900000000    0.8134811899999999 O
   0.6524422400000001    0.0340376599999999    0.0340347699999999 O
   0.8475665600000001    0.8136741199999999    0.6184669599999997 O
   0.6524424700000002    0.6184049900000000    0.8135235599999998 O
   0.8475667500000003    0.0338928700000000    0.0339669499999998 O
   0.4997225600000001    0.4999865300000000    0.2121542900000000 O
   0.4997225400000000    0.9997360800000000    0.7881231499999998 O
   0.9999307600000000    0.2120684999999999    0.5000465699999997 O
   0.9999298400000000    0.7878613900000000    0.0000219700000000 O
   0.2120013600000000    0.9999388000000000    0.5000582600000000 O
   0.2881185700000000    0.5000951400000000    0.9999057099999997 O
   0.2881189800000001    0.7880233500000000    0.2119756600000000 O
   0.2120017900000000    0.2120630599999999    0.7879401900000000 O
   0.7119751200000002    0.2120719800000000    0.9998822199999998 O
   0.7879386400000000    0.7878050599999998    0.4999756599999999 O
   0.7119748600000001    0.4999028400000001    0.7881423799999998 O
   0.7879382500000000    0.0001332899999999    0.2120861199999999 O
   0.7119758100000001    0.4999030799999998    0.9998818499999997 O
   0.7879385000000000    0.0001337699999999    0.4999750999999998 O
   0.7119759100000002    0.2120724499999999    0.7881418899999998 O
   0.7879374200000001    0.7878036500000000    0.2120859399999998 O
   0.4997236400000000    0.9997370799999998    0.2121542399999999 O
   0.4997237400000001    0.4999870499999999    0.7881221499999997 O
   0.9999298800000000    0.7878619200000000    0.5000480399999999 O
   0.9999300800000001    0.2120689599999998    0.0000216399999999 O
   0.2120010400000000    0.2120627300000001    0.5000588100000000 O
   0.2881190000000000    0.7880229200000000    0.9999061600000000 O
   0.2881189300000001    0.5000951300000001    0.2119755399999999 O
   0.2120013100000001    0.9999391300000000    0.7879393199999999 O
   0.7500827200000001    0.5517607800000001    0.5515625299999998 O
   0.7500827200000001    0.1983219600000000    0.1983547499999999 O
   0.7500831300000002    0.1983221800000000    0.5515625299999999 O
   0.7500831300000002    0.5517608200000002    0.1983546399999999 O
   0.6035839100000000    0.8017918100000000    0.4482080599999999 O
   0.2499561700000000    0.4482556300000000    0.4482518199999999 O
   0.2499562600000000    0.8017003499999998    0.8017919300000000 O
   0.2499559400000000    0.8017003400000001    0.4482517800000000 O
   0.2499561800000000    0.4482554900000000    0.8017923500000000 O
