Re2 N4
1.0
   4.3901040000000000    0.0000000000000000    0.0000000000000000
   0.0000000000000000    4.3901040000000000    0.0000000000000000
   0.0000000000000000    0.0000000000000000    2.6765639999999999
Re N
2 4
direct
   0.5000000000000000    0.5000000000000000    0.5000000000000000 Re
   0.0000000000000000    0.0000000000000000    0.5000000000000000 Re
   0.1143720000000000    0.6143720000000000    0.0000000000000000 N
   0.8856280000000000    0.3856280000000000    0.0000000000000000 N
   0.6143720000000000    0.8856280000000000    0.0000000000000000 N
   0.3856280000000000    0.1143720000000000    0.0000000000000000 N
