Mg3 Zr1
1.0
   4.4603130000000002    0.0000000000000000    0.0000000000000000
   0.0000000000000000    4.4603130000000002    0.0000000000000000
   0.0000000000000000    0.0000000000000000    4.4603130000000002
Mg Zr
3 1
direct
   0.5000000000000000    0.5000000000000000    0.0000000000000000 Mg
   0.5000000000000000    0.0000000000000000    0.5000000000000000 Mg
   0.0000000000000000    0.5000000000000000    0.5000000000000000 Mg
   0.0000000000000000    0.0000000000000000    0.0000000000000000 Zr
