Ga14 Ni6
1.0
  -4.2323300000000001    4.2323300000000001    4.2323300000000001
   4.2323300000000001   -4.2323300000000001    4.2323300000000001
   4.2323300000000001    4.2323300000000001   -4.2323300000000001
Ga Ni
14 6
direct
   0.7499999999999999    0.2500000000000001    0.4999999999999999 Ga
   0.5000000000000000    0.2499999999999999    0.7499999999999999 Ga
   0.5000000000000000    0.7499999999999999    0.2500000000000000 Ga
   0.2499999999999999    0.5000000000000000    0.7500000000000000 Ga
   0.7499999999999999    0.5000000000000000    0.2500000000000000 Ga
   0.2500000000000001    0.7499999999999999    0.4999999999999999 Ga
   0.3231940000000000    0.3231940000000000    0.3231940000000000 Ga
  -0.0000000000000000   -0.0000000000000000    0.3231940000000000 Ga
   0.3231940000000000    0.0000000000000000    0.0000000000000000 Ga
   0.0000000000000000    0.3231940000000000   -0.0000000000000000 Ga
   0.6768060000000000   -0.0000000000000000   -0.0000000000000000 Ga
  -0.0000000000000000    0.6768060000000000    0.0000000000000000 Ga
   0.0000000000000000    0.0000000000000000    0.6768060000000000 Ga
   0.6768060000000000    0.6768060000000000    0.6768060000000000 Ga
   0.3498490000000000    0.3498490000000000    0.0000000000000000 Ni
  -0.0000000000000000    0.3498490000000000    0.3498490000000000 Ni
  -0.0000000000000000    0.6501510000000000    0.6501510000000000 Ni
   0.6501510000000000    0.0000000000000000    0.6501510000000000 Ni
   0.3498490000000000    0.0000000000000000    0.3498490000000000 Ni
   0.6501510000000000    0.6501510000000000    0.0000000000000000 Ni
