Si1 Ni3
1.0
   3.5046719999999998    0.0000000000000000    0.0000000000000000
   0.0000000000000000    3.5046719999999998    0.0000000000000000
   0.0000000000000000    0.0000000000000000    3.5046719999999998
Si Ni
1 3
direct
   0.0000000000000000    0.0000000000000000    0.0000000000000000 Si
   0.0000000000000000    0.5000000000000000    0.5000000000000000 Ni
   0.5000000000000000    0.5000000000000000    0.0000000000000000 Ni
   0.5000000000000000    0.0000000000000000    0.5000000000000000 Ni
