Se32
1.0
   8.4858709999999995    0.0000000000000000    0.0000000000000000
   0.0000000000000000   10.2363239999999998    0.0000000000000000
   0.0000000000000000    1.2337400000000001   13.5844020000000008
Se
32
direct
   0.6795789999999999    0.4238790000000000    0.4146500000000001 Se
   0.1795790000000000    0.5761210000000000    0.0853500000000000 Se
   0.3204210000000000    0.5761210000000001    0.5853500000000000 Se
   0.8204210000000000    0.4238790000000000    0.9146500000000000 Se
   0.7659880000000000    0.2465490000000000    0.5241630000000000 Se
   0.2659880000000000    0.7534509999999999    0.9758370000000000 Se
   0.2340120000000000    0.7534510000000001    0.4758370000000000 Se
   0.7340120000000000    0.2465490000000000    0.0241630000000000 Se
   0.5976920000000000    0.2326100000000000    0.6634590000000001 Se
   0.0976920000000000    0.7673900000000000    0.8365410000000000 Se
   0.4023079999999999    0.7673900000000001    0.3365410000000000 Se
   0.9023079999999999    0.2326100000000000    0.1634590000000000 Se
   0.4147299999999999    0.0627860000000000    0.6449140000000000 Se
   0.9147300000000000    0.9372140000000000    0.8550860000000000 Se
   0.5852699999999998    0.9372140000000000    0.3550860000000000 Se
   0.0852700000000000    0.0627860000000000    0.1449140000000000 Se
   0.1765000000000000    0.1613330000000000    0.5867010000000000 Se
   0.6764999999999999    0.8386670000000001    0.9132990000000001 Se
   0.8235000000000000    0.8386670000000003    0.4132990000000000 Se
   0.3235000000000000    0.1613330000000000    0.0867010000000000 Se
   0.1667870000000000    0.1530000000000000    0.4135320000000000 Se
   0.6667870000000000    0.8470000000000001    0.0864680000000000 Se
   0.8332130000000000    0.8470000000000000    0.5864680000000000 Se
   0.3332130000000000    0.1530000000000000    0.9135320000000000 Se
   0.2527350000000000    0.3585040000000000    0.3400600000000000 Se
   0.7527350000000000    0.6414960000000000    0.1599400000000000 Se
   0.7472649999999998    0.6414960000000000    0.6599400000000000 Se
   0.2472650000000000    0.3585040000000000    0.8400600000000000 Se
   0.5202200000000000    0.3368630000000000    0.2943570000000000 Se
   0.0202200000000000    0.6631370000000001    0.2056430000000000 Se
   0.4797799999999999    0.6631370000000000    0.7056430000000000 Se
   0.9797800000000000    0.3368630000000000    0.7943570000000000 Se
