Y12 O18
1.0
   3.5027059999999999    0.0000000000000000    0.0000000000000000
   0.0000000000000000    8.6171989999999994    0.0000000000000000
   0.0000000000000000    2.1905190000000001   14.3385630000000006
Y O
12 18
direct
   0.2500000000000000    0.8169780000000000    0.0081890000000000 Y
   0.2500000000000000    0.4562640000000000    0.1153490000000000 Y
   0.7499999999999999    0.8220630000000000    0.2183940000000000 Y
   0.7499999999999999    0.1835540000000000    0.2841310000000000 Y
   0.2500000000000000    0.5050980000000000    0.3936589999999999 Y
   0.2500000000000000    0.8699699999999999    0.4356670000000000 Y
   0.7499999999999999    0.1300300000000000    0.5643330000000000 Y
   0.7499999999999999    0.4949020000000000    0.6063410000000000 Y
   0.2500000000000000    0.8164460000000000    0.7158690000000000 Y
   0.2500000000000000    0.1779370000000000    0.7816059999999999 Y
   0.7499999999999999    0.5437360000000001    0.8846509999999999 Y
   0.7499999999999999    0.1830220000000000    0.9918110000000000 Y
   0.7499999999999999    0.6205420000000001    0.0307720000000000 O
   0.7499999999999999    0.2835870000000000    0.1308430000000000 O
   0.7499999999999999    0.9380290000000001    0.0707760000000000 O
   0.2500000000000000    0.6848220000000000    0.1819720000000000 O
   0.2500000000000000    0.3483650000000000    0.2833460000000000 O
   0.2500000000000000    0.9886930000000003    0.2711790000000000 O
   0.7499999999999999    0.0339130000000000    0.4264290000000000 O
   0.7499999999999999    0.7024770000000001    0.3703129999999999 O
   0.7499999999999999    0.3734800000000000    0.4652330000000000 O
   0.2500000000000000    0.6265200000000000    0.5347670000000000 O
   0.2500000000000000    0.2975230000000000    0.6296870000000000 O
   0.2500000000000000    0.9660870000000004    0.5735710000000001 O
   0.7499999999999999    0.0113070000000000    0.7288210000000001 O
   0.7499999999999999    0.6516350000000000    0.7166539999999999 O
   0.7499999999999999    0.3151780000000001    0.8180279999999999 O
   0.2500000000000000    0.0619710000000000    0.9292240000000000 O
   0.2500000000000000    0.7164130000000001    0.8691570000000000 O
   0.2500000000000000    0.3794580000000000    0.9692280000000000 O
