Y20 Bi12
1.0
   8.2835959999999993    0.0000000000000000    0.0000000000000000
   0.0000000000000000    9.5214420000000004    0.0000000000000000
   0.0000000000000000    0.0000000000000000   12.1237320000000004
Y Bi
20 12
direct
   0.0266340000000000    0.7500000000000000    0.9891260000000001 Y
   0.5266340000000000    0.7500000000000000    0.5108740000000002 Y
   0.9733660000000001    0.2500000000000000    0.0108740000000000 Y
   0.4733660000000000    0.2500000000000000    0.4891260000000000 Y
   0.1860750000000000    0.7500000000000000    0.7189880000000000 Y
   0.6860750000000000    0.7500000000000000    0.7810120000000002 Y
   0.8139250000000001    0.2500000000000000    0.2810120000000000 Y
   0.3139250000000000    0.2500000000000000    0.2189880000000000 Y
   0.3062800000000001    0.4371810000000000    0.9397840000000001 Y
   0.8062800000000000    0.0628190000000000    0.5602160000000000 Y
   0.6937200000000000    0.9371810000000000    0.0602160000000000 Y
   0.1937200000000000    0.5628190000000000    0.4397840000000001 Y
   0.6937200000000000    0.5628190000000000    0.0602160000000000 Y
   0.1937200000000000    0.9371810000000000    0.4397840000000001 Y
   0.3062800000000001    0.0628190000000000    0.9397840000000001 Y
   0.8062800000000000    0.4371810000000000    0.5602160000000000 Y
   0.3539200000000001    0.7500000000000000    0.2150270000000000 Y
   0.8539200000000000    0.7500000000000000    0.2849730000000000 Y
   0.6460800000000000    0.2500000000000000    0.7849730000000000 Y
   0.1460800000000000    0.2500000000000000    0.7150270000000001 Y
   0.4337850000000000    0.0036290000000000    0.6739750000000000 Bi
   0.9337850000000000    0.4963710000000000    0.8260250000000001 Bi
   0.5662150000000000    0.5036290000000000    0.3260250000000000 Bi
   0.0662150000000000    0.9963710000000000    0.1739750000000000 Bi
   0.5662150000000000    0.9963710000000000    0.3260250000000000 Bi
   0.0662150000000000    0.5036290000000000    0.1739750000000000 Bi
   0.4337850000000000    0.4963710000000000    0.6739750000000000 Bi
   0.9337850000000000    0.0036290000000000    0.8260250000000001 Bi
   0.4102280000000000    0.7500000000000000    0.9580980000000000 Bi
   0.9102280000000000    0.7500000000000000    0.5419020000000001 Bi
   0.5897720000000000    0.2500000000000000    0.0419020000000000 Bi
   0.0897720000000000    0.2500000000000000    0.4580980000000000 Bi
